111
Lattice="10.332 0.0 6.326525364395227e-16 1.932963424911317e-15 12.02 7.3601272628755925e-16 0.0 0.0 9.384" Properties=species:S:1:pos:R:3:forces:R:3 energy=-759.506484104031 pbc="T T T"
Li      -0.01516820       2.89643608      -0.03164407      -0.01511914       0.00882284      -0.01479721
Li       5.16070213      -0.00004160       2.34126413       0.00220009      -0.00139544       0.00018746
Li       5.16456740       3.00034522       2.34374882      -0.00004541       0.01003275      -0.00238712
Fe       7.44873318       4.50911902       0.12547163      -0.01659624      -0.00048121       0.01277259
Fe       2.26944690       4.48553653       2.21172662      -0.01215664       0.01386621      -0.00717903
Fe       8.06644522       1.49160556       2.45763226       0.01190782      -0.00324686       0.01158549
Fe       2.87433207       1.49858943       4.54315077       0.01017436       0.00970724      -0.00483069
P        9.36836456       4.51557500       2.74074948      -0.02179657      -0.00580162      -0.00004557
P        4.21307751       4.50893586       4.29426256      -0.00789657      -0.00574294      -0.00076437
P        6.10999209       1.50608610       0.39231382       0.01402861      -0.01529269       0.00622354
P        0.94448688       1.49304942       1.95202198      -0.01520214      -0.02629641      -0.02899585
O        9.33929664       4.51903516       1.20970101      -0.02007812       0.00210065       0.00025286
O        4.19048763       4.50909568       1.13695502      -0.00763926      -0.00051593      -0.00572431
O        6.15598837       1.51330916       3.55007003       0.00620106       0.00021110       0.00701851
O        0.97944409       1.50214048       3.49547758       0.00518336       0.00544221       0.00283502
O        5.64739832       4.51285496       3.70451272       0.01442287       0.00876123       0.00739537
O        0.46983587       4.51014276       3.33172967       0.00002730       0.00404868      -0.01414127
O        9.83891877       1.54575861       1.41484926       0.00635060      -0.04326515      -0.01034655
O        4.67410411       1.51421092       0.97756569      -0.00091219      -0.00019974       0.00468408
O        8.61877555       3.29398774       3.38190854      -0.00105925       0.00624189       0.00112643
O        8.63903817       5.75347520       3.37609261      -0.00311422       0.00186831       0.01623054
O        3.47022975       5.73787040       3.66020830       0.00940221       0.00019557      -0.00853213
O        6.84992564       2.73871580       1.02347975       0.00353665       0.00401896       0.00521732
O        1.76538479       0.30231514       1.37547414      -0.01912203      -0.01746725      -0.02472223
O        6.83707999       0.27691492       1.03791276       0.00858820       0.00805560      -0.00157712
O        3.48222326       3.27777582       3.65409693       0.01149029       0.00592283      -0.01242736
O        1.67586394       2.74249717       1.31923730       0.00221473      -0.00241188      -0.00324737
Li       0.00713233       2.98929367       4.66998982      -0.00651458       0.01382916      -0.00816741
Li      -0.00000000       0.00000000       4.69200000      -0.00000000      -0.00000000      -0.00000000
Li       5.17129787       0.00004160       7.04273587      -0.00220009       0.00139544      -0.00018746
Li       5.16676790       2.99481279       7.04359339      -0.00246543       0.00231081      -0.00084178
Fe       7.44873538       4.50451401       4.82293759      -0.01026049       0.00491763       0.00827567
Fe       2.27594681       4.48901340       6.91625563      -0.00871181      -0.00074003      -0.02139745
Fe       8.07226694       1.48686453       7.17898201       0.00943707      -0.01249441       0.01140807
Fe       2.85167742       1.48006901       9.26785772       0.00824844       0.01034197       0.00635266
P        9.37907181       4.51255433       7.43443331      -0.01009383      -0.02297688       0.00554787
P        4.21294265       4.50278048       8.98858720      -0.00147389      -0.00295842      -0.00228369
P        6.11866359       1.50508534       5.08315088       0.00410245      -0.01378839       0.00797682
P        0.97653479       1.53395668       6.63846277      -0.00466219      -0.01465643       0.00275927
O        9.35485976       4.51190048       5.90171659      -0.01716524       0.00151594      -0.00039561
O        4.18983827       4.50873680       5.82643647      -0.01379700      -0.00344306      -0.00527617
O        6.14135836       1.50188964       8.24395051       0.00333846       0.00167521       0.00518724
O        1.04883570       1.60646953       8.15029782       0.00846469      -0.01504557      -0.00389991
O        5.64822628       4.51272006       8.39745581       0.00779369       0.00182465       0.00521482
O        0.47777304       4.51250284       8.02669317       0.00519188       0.00089283      -0.01464752
O        9.86556007       1.51807848       6.06437094       0.01488483      -0.00152714      -0.00283204
O        4.68166956       1.51098725       5.66419951       0.00270233       0.00504746       0.00465902
O        8.63213420       3.28498659       8.06638623       0.01375079      -0.00193597       0.00472510
O        8.63823724       5.74516043       8.06314580       0.00434212      -0.00092963       0.01701283
O        3.47133741       5.73320814       8.35447947       0.00542695      -0.00073897      -0.00930856
O        6.86182185       2.72750524       5.72948747       0.00414109       0.01314100       0.00251613
O        1.70364585       0.28984991       6.01229440       0.01352552       0.01025336      -0.02100714
O        6.84180267       0.26830110       5.71583062       0.00260115       0.00949971       0.00497565
O        3.48438268       3.27168506       8.35131178       0.00685384       0.00229213      -0.01147453
O        1.69626051       2.75554450       5.94331303       0.00525956       0.02129466       0.00169608
Li       0.01516820       9.12356392       0.03164407       0.01511914      -0.00882284       0.01479721
Li       0.00000000       6.01000000       0.00000000      -0.00000000       0.00000000      -0.00000000
Li       5.16546847       6.00972714       2.34251668       0.00314385       0.00162661      -0.00101870
Li       5.16523210       9.02518721       2.34040661       0.00246543      -0.00231081       0.00084178
Fe       7.48032258      10.53993099       0.11614228      -0.00824844      -0.01034197      -0.00635266
Fe       2.25973306      10.53313547       2.20501799      -0.00943707       0.01249441      -0.01140807
Fe       8.05605319       7.53098660       2.46774437       0.00871181       0.00074003       0.02139745
Fe       2.88326462       7.51548599       4.56106241       0.01026049      -0.00491763      -0.00827567
P        9.35546521      10.48604332       2.74553723       0.00466219       0.01465643      -0.00275927
P        4.21333641      10.51491466       4.30084912      -0.00410245       0.01378839      -0.00797682
P        6.11905735       7.51721952       0.39541280       0.00147389       0.00295842       0.00228369
P        0.95292819       7.50744567       1.94956669       0.01009383       0.02297688      -0.00554787
O        9.28316430      10.41353047       1.23370218      -0.00846469       0.01504557       0.00389991
O        4.19064164      10.51811036       1.14004949      -0.00333846      -0.00167521      -0.00518724
O        6.14216173       7.51126320       3.55756353       0.01379700       0.00344306       0.00527617
O        0.97714024       7.50809952       3.48228341       0.01716524      -0.00151594       0.00039561
O        5.65033044      10.50901275       3.71980049      -0.00270233      -0.00504746      -0.00465902
O        0.46643993      10.50192152       3.31962906      -0.01488483       0.00152714       0.00283204
O        9.85422696       7.50749716       1.35730683      -0.00519188      -0.00089283       0.01464752
O        4.68377372       7.50727994       0.98654419      -0.00779369      -0.00182465      -0.00521482
O        8.63573949       9.26445550       3.44068697      -0.00525956      -0.02129466      -0.00169608
O        8.62835415      11.73015009       3.37170560      -0.01352552      -0.01025336       0.02100714
O        3.49019733      11.75169890       3.66816938      -0.00260115      -0.00949971      -0.00497565
O        6.84761732       8.74831494       1.03268822      -0.00685384      -0.00229213       0.01147453
O        1.69376276       6.27483957       1.32085420      -0.00434212       0.00092963      -0.01701283
O        6.86066259       6.28679186       1.02952053      -0.00542695       0.00073897       0.00930856
O        3.47017815       9.29249476       3.65451253      -0.00414109      -0.01314100      -0.00251613
O        1.69986580       8.73501341       1.31761377      -0.01375079       0.00193597      -0.00472510
Li      -0.00713233       9.03070633       4.71401018       0.00651458      -0.01382916       0.00816741
Li       0.00000000       6.01000000       4.69200000      -0.00000000       0.00000000      -0.00000000
Li       5.16653153       6.01027286       7.04148332      -0.00314385      -0.00162661       0.00101870
Li       5.16743260       9.01965478       7.04025118       0.00004541      -0.01003275       0.00238712
Fe       7.45766793      10.52141057       4.84084923      -0.01017436      -0.00970724       0.00483069
Fe       2.26555478      10.52839444       6.92636774      -0.01190782       0.00324686      -0.01158549
Fe       8.06255310       7.53446347       7.17227338       0.01215664      -0.01386621       0.00717903
Fe       2.88326682       7.51088098       9.25852837       0.01659624       0.00048121      -0.01277259
P        9.38751312      10.52695058       7.43197802       0.01520214       0.02629641       0.02899585
P        4.22200791      10.51391390       8.99168618      -0.01402861       0.01529269      -0.00622354
P        6.11892249       7.51106414       5.08973744       0.00789657       0.00574294       0.00076437
P        0.96363544       7.50442500       6.64325052       0.02179657       0.00580162       0.00004557
O        9.35255591      10.51785952       5.88852242      -0.00518336      -0.00544221      -0.00283502
O        4.17601163      10.50669084       5.83392997      -0.00620106      -0.00021110      -0.00701851
O        6.14151237       7.51090432       8.24704498       0.00763926       0.00051593       0.00572431
O        0.99270336       7.50096484       8.17429899       0.02007812      -0.00210065      -0.00025286
O        5.65789589      10.50578908       8.40643431       0.00091219       0.00019974      -0.00468408
O        0.49308123      10.47424139       7.96915074      -0.00635060       0.04326515       0.01034655
O        9.86216413       7.50985724       6.05227033      -0.00002730      -0.00404868       0.01414127
O        4.68460168       7.50714504       5.67948728      -0.01442287      -0.00876123      -0.00739537
O        8.65613606       9.27750283       8.06476270      -0.00221473       0.00241188       0.00324737
O        8.56661521      11.71768486       8.00852586       0.01912203       0.01746725       0.02472223
O        3.49492001      11.74308508       8.34608724      -0.00858820      -0.00805560       0.00157712
O        6.84977674       8.74222418       5.72990307      -0.01149029      -0.00592283       0.01242736
O        1.69296183       6.26652480       6.00790739       0.00311422      -0.00186831      -0.01623054
O        6.86177025       6.28212960       5.72379170      -0.00940221      -0.00019557       0.00853213
O        3.48207436       9.28128420       8.36052025      -0.00353665      -0.00401896      -0.00521732
O        1.71322445       8.72601226       6.00209146       0.00105925      -0.00624189      -0.00112643
111
Lattice="10.332 0.0 6.326525364395227e-16 1.932963424911317e-15 12.02 7.3601272628755925e-16 0.0 0.0 9.384" Properties=species:S:1:pos:R:3:forces:R:3 energy=-759.4627891051409 pbc="T T T"
Li      -0.16184133       2.60270123      -0.14708866       0.12571578       0.20969296       0.08243250
Li       5.16396245      -0.00812212       2.33767156      -0.00002243       0.00017907       0.00053341
Li       5.16893482       3.00791523       2.33880152       0.00224162      -0.00336595      -0.00115838
Fe       7.44471476       4.50611545       0.13335723      -0.00513366      -0.00134671      -0.00157875
Fe       2.25484685       4.47399327       2.19325659       0.00264990      -0.00215448      -0.00261894
Fe       8.06402972       1.48450862       2.48449511       0.00511718      -0.00616207      -0.01428315
Fe       2.88727224       1.49734280       4.52248860      -0.00337856      -0.00138950      -0.00109419
P        9.35267109       4.51756275       2.75069872       0.00369970      -0.00691665      -0.00818417
P        4.21039629       4.51051623       4.28399774      -0.00515031      -0.00494116      -0.00126790
P        6.11951786       1.50126434       0.39804956      -0.00511176      -0.00085896       0.00226066
P        0.94998716       1.47185307       1.95135395      -0.00449368      -0.00335156      -0.00816602
O        9.29960305       4.53678464       1.22376067       0.00666115      -0.01939968      -0.00140836
O        4.18502942       4.50681940       1.13122527      -0.00261507      -0.00510431      -0.00206014
O        6.14865145       1.51107742       3.55637444       0.00539373      -0.00123483       0.00131043
O        0.98829477       1.49720753       3.49367301      -0.01048429      -0.00516602      -0.01827323
O        5.64971508       4.51892628       3.70613476       0.00044206      -0.00427230      -0.00308891
O        0.46277629       4.50996904       3.32201414       0.00098967      -0.00265590      -0.00107795
O        9.83589528       1.48512157       1.42855817      -0.00892175       0.01184388      -0.02611688
O        4.68261862       1.51223443       0.98280429      -0.00045473      -0.00088552      -0.00540598
O        8.61427043       3.28941893       3.39152717       0.00051204      -0.00771375      -0.00015746
O        8.63532108       5.75251400       3.40947128      -0.00231615      -0.00679467      -0.00959832
O        3.46881056       5.73677021       3.64569728       0.00016762      -0.00207951      -0.00208987
O        6.85964507       2.73309508       1.03130325      -0.00251472      -0.00138996      -0.00142521
O        1.77021901       0.28255163       1.37164056      -0.00254812       0.00019904      -0.01236101
O        6.84522963       0.27269217       1.04525617      -0.00237967      -0.00071703      -0.00084225
O        3.48716572       3.27853156       3.63686130      -0.00449367      -0.00072749      -0.00258464
O        1.67097517       2.71800634       1.31088090      -0.01722769       0.00381151      -0.02219043
Li       0.00979869       2.99629817       4.66964724      -0.00055726      -0.01028114      -0.00354618
Li       0.00506143      -0.01232550       4.68207429      -0.00009329       0.00201985       0.00116211
Li       5.16346022       0.00063958       7.04490104      -0.00009771      -0.00259250      -0.00035876
Li       5.16306279       2.99191671       7.04597104       0.00247752      -0.00249503      -0.00105267
Fe       7.44123830       4.50729819       4.83879144      -0.00124109      -0.00442460      -0.00135287
Fe       2.27655581       4.48317273       6.90773045      -0.00360684      -0.00635024      -0.00058490
Fe       8.06846177       1.46903147       7.15519808       0.01215358      -0.00177765       0.01710332
Fe       2.86325011       1.48151585       9.27061484      -0.00312400      -0.00715953      -0.00311680
P        9.38681836       4.48581328       7.44004237      -0.00879369       0.00498944       0.00581566
P        4.21577201       4.50076720       8.98344767      -0.00373996      -0.00312895      -0.00216084
P        6.11145892       1.50223653       5.08864800      -0.00114724      -0.00327885      -0.00345639
P        0.99370623       1.50633286       6.61017669      -0.00648037       0.00373030      -0.00463111
O        9.34666045       4.48883304       5.90713454       0.00326295       0.01201461      -0.01004272
O        4.17951019       4.50745582       5.81638513      -0.00058425      -0.00479930      -0.00337235
O        6.14877248       1.49769859       8.24990062      -0.00039968      -0.00243453      -0.00467606
O        1.07268581       1.54035773       8.12406285      -0.01356831       0.01956898       0.01234258
O        5.65518129       4.51032604       8.39985928      -0.00201715      -0.00114981      -0.00178104
O        0.48834168       4.49293860       8.01470216      -0.01553632      -0.01971806       0.00700873
O        9.87786020       1.50401019       6.05044393      -0.00602457      -0.00289180      -0.00038037
O        4.67547026       1.51073225       5.67024171       0.00479272      -0.00257106      -0.00207316
O        8.65069179       3.24585574       8.06785812      -0.02247106       0.01522321      -0.00543457
O        8.63591578       5.71152950       8.07227386       0.00465285       0.01159774      -0.00072841
O        3.47963983       5.73121917       8.34500312      -0.00135393      -0.00308067      -0.00199193
O        6.85564155       2.72438353       5.73436053       0.00430638      -0.00077057       0.00096402
O        1.71664392       0.26943166       5.96786664      -0.00703929       0.00651692       0.00781127
O        6.83389324       0.26391758       5.71966051       0.00287749      -0.00373914       0.00257349
O        3.49294658       3.26796283       8.34368510      -0.00238458      -0.00338226      -0.00174068
O        1.71023195       2.74022831       5.93928335      -0.00723620      -0.00086045      -0.00350856
Li       0.01991489       9.12043920       0.03892645       0.00026486       0.00109210       0.00303185
Li       0.01488389       5.95041036       0.02437773      -0.00317671       0.01250528      -0.00321324
Li       5.16272005       6.01186202       2.34266566      -0.00102249      -0.00194934       0.00263722
Li       5.17056444       9.02155674       2.34154109      -0.00051686       0.00137189       0.00160550
Fe       7.47767914      10.53574592       0.11915846       0.00032123       0.00022547       0.00115707
Fe       2.25881604      10.52270580       2.20339612       0.00080940      -0.00148925      -0.00008397
Fe       8.05754389       7.52222016       2.48035619      -0.00118099      -0.00026075       0.00049730
Fe       2.88633211       7.50940043       4.55283088      -0.00176626      -0.00236344       0.00071772
P        9.34936928      10.47787311       2.75424262       0.00251872      -0.00413487      -0.00019502
P        4.21719182      10.50932636       4.29383223      -0.00574833       0.00132195       0.00080126
P        6.11932740       7.51672986       0.40533471      -0.00018901      -0.00093579       0.00212036
P        0.95086465       7.50350809       1.94399708       0.00116934      -0.00330126       0.00229905
O        9.27400638      10.40998159       1.24278250      -0.00169613      -0.00384212       0.00729845
O        4.19113674      10.51265268       1.13507676      -0.00079158       0.00120708      -0.00213698
O        6.15049916       7.50982268       3.57181188       0.00016414      -0.00239266       0.00209247
O        0.98278790       7.50469199       3.47690955       0.00199261      -0.00339277       0.00142263
O        5.65575661      10.49738882       3.71686351       0.00138158       0.00093057       0.00158459
O        0.46199900      10.50016932       3.32318610       0.00074617      -0.00449866       0.00181755
O        9.84951614       7.49868418       1.35969390      -0.00037555      -0.00682403       0.00260682
O        4.67908279       7.50832174       0.98552316       0.00052092      -0.00209600       0.00427810
O        8.63965372       9.25076555       3.45006282      -0.00009617      -0.00271424       0.00711904
O        8.61564399      11.71484235       3.38922507       0.00125621       0.00060531       0.00021565
O        3.50084578      11.74589837       3.65523861      -0.00163398      -0.00279972       0.00114775
O        6.84336976       8.74802810       1.04489483       0.00037172       0.00070293       0.00246002
O        1.69199535       6.27189067       1.31136100      -0.00000952      -0.00461117       0.00206134
O        6.85316343       6.28694284       1.04651449       0.00174177      -0.00101598       0.00205677
O        3.47108016       9.28695073       3.64895056       0.00153459      -0.00150309      -0.00086921
O        1.69176364       8.73336875       1.31023858      -0.00168612      -0.00454044       0.00024114
Li      -0.00451304       9.02195607       4.71972388       0.00117800      -0.00038968       0.00502918
Li      -0.00165342       6.00790645       4.69503711       0.00032625      -0.00258485      -0.00198685
Li       5.16380620       6.00927219       7.04435094      -0.00059527      -0.00344644      -0.00093374
Li       5.16775282       9.01348860       7.04494819       0.00059828       0.00039267       0.00225076
Fe       7.45491135      10.50718540       4.85223130      -0.00128419      -0.00072904       0.00474406
Fe       2.26771258      10.52362279       6.91743545      -0.00335041       0.00469866      -0.00150070
Fe       8.07251394       7.52296959       7.19344979       0.00199638       0.00007164       0.00208833
Fe       2.88871374       7.50967290       9.25215628      -0.00054651      -0.00149093       0.00020639
P        9.39567499      10.53591717       7.44461543       0.00367691      -0.00991658       0.00312661
P        4.22212940      10.51317334       8.98741850      -0.00247805      -0.00170238       0.00167815
P        6.11971333       7.50834540       5.10349400      -0.00300152      -0.00127544      -0.00006417
P        0.97047420       7.49856362       6.64332874       0.00325110      -0.00533949      -0.00031852
O        9.35048276      10.52291164       5.90140409       0.00325383      -0.00788959      -0.00071846
O        4.17730341      10.50358773       5.82657164      -0.00448488      -0.00110499       0.00064734
O        6.15238805       7.50811120       8.25706414      -0.00074879      -0.00034789       0.00382193
O        1.00888756       7.49357787       8.17330352       0.00074656      -0.00860631      -0.00118773
O        5.65938139      10.50587105       8.40351203       0.00216276      -0.00108891      -0.00086360
O        0.50282779      10.47836510       7.97604739      -0.00071170      -0.00090862       0.00004508
O        9.86214838       7.50054466       6.06712223      -0.00049344      -0.00244286      -0.00303126
O        4.68057126       7.50394082       5.68260239       0.00145404      -0.00134480       0.00009595
O        8.65641804       9.28797327       8.07381956       0.00726725      -0.00910047       0.00273395
O        8.59162746      11.73522154       8.02939959      -0.01016352      -0.01357357      -0.00181483
O        3.49559627      11.74272566       8.34310044       0.00038719      -0.00268203      -0.00246447
O        6.84795074       8.73760738       5.74995909       0.00063302      -0.00022676       0.00101579
O        1.69581751       6.26365095       5.99768889      -0.00356427      -0.00813258       0.00056802
O        6.85640200       6.27974510       5.74485626       0.00257081      -0.00284023       0.00026238
O        3.48424516       9.28083104       8.35229394       0.00177729      -0.00295411       0.00135677
O        1.70976381       8.72270454       5.99584348       0.00186844      -0.00621477       0.00214674
111
Lattice="10.332 0.0 6.326525364395227e-16 1.932963424911317e-15 12.02 7.3601272628755925e-16 0.0 0.0 9.384" Properties=species:S:1:pos:R:3:forces:R:3 energy=-759.3403935404729 pbc="T T T"
Li      -0.33443222       2.27710021      -0.23795073       0.12769314       0.23455776       0.07030227
Li       5.16381693      -0.00991292       2.33592492      -0.00055515       0.00074343      -0.00205078
Li       5.16630473       3.01074089       2.33718861       0.00169561      -0.00375836      -0.00292793
Fe       7.45109115       4.50563921       0.13403405      -0.00625256       0.00107305      -0.00231580
Fe       2.25390376       4.47706085       2.19453914       0.00301952       0.00200963      -0.00230581
Fe       8.06098480       1.48819202       2.49947481       0.00480579      -0.00591088      -0.01413974
Fe       2.89269239       1.49790953       4.51931298      -0.00451415      -0.00192109      -0.00546060
P        9.34929456       4.52595020       2.75477228       0.00229698      -0.00500202      -0.01168527
P        4.21289220       4.51258789       4.28515103      -0.00530144      -0.00473184       0.00136824
P        6.12395890       1.50042864       0.39721432      -0.00679672      -0.00094000       0.00741806
P        0.96488028       1.47672603       1.96392357       0.00282823      -0.00867870      -0.00275680
O        9.28594728       4.56210917       1.23242453       0.00119110      -0.01858281       0.00290784
O        4.18903514       4.50890959       1.13255661      -0.00142511      -0.00676194      -0.00283703
O        6.13893169       1.51019099       3.55427013      -0.00133336      -0.00044012       0.00230439
O        0.99639103       1.49541972       3.50561528      -0.01142082      -0.00352852      -0.00982369
O        5.65229162       4.52216450       3.70813714       0.00200806      -0.00258031      -0.00302895
O        0.46109169       4.51190043       3.32278464       0.00071257      -0.00217669      -0.00167650
O        9.84349545       1.47791494       1.45600532      -0.01069784      -0.00548108      -0.01227366
O        4.68783455       1.51116818       0.98274774       0.00562677       0.00153980      -0.00703617
O        8.61242244       3.29395580       3.39236506      -0.00199690      -0.00748740       0.00067604
O        8.63724775       5.75873704       3.42727332      -0.00205722      -0.00503096      -0.00665255
O        3.46926273       5.73721272       3.64605333       0.00143953      -0.00047612      -0.00275199
O        6.86650310       2.73062123       1.03096229       0.00243407      -0.00174416      -0.00474995
O        1.76928239       0.28052002       1.37437726      -0.00014554      -0.00376133      -0.01050250
O        6.85123120       0.27251567       1.04451478      -0.00150583      -0.00079404      -0.00093154
O        3.49262253       3.27949155       3.63984761      -0.00515509       0.00064337      -0.00423422
O        1.69946329       2.71125250       1.33268971      -0.01461912      -0.00281808      -0.02362808
Li       0.01283716       3.00235734       4.66985678       0.00109410      -0.01080500      -0.00143543
Li       0.00914977      -0.01563741       4.67684193       0.00111522       0.00048660       0.00142265
Li       5.15916993       0.00103189       7.04590864      -0.00098477      -0.00335466       0.00021357
Li       5.15900011       2.99380904       7.04682745       0.00255396      -0.00164057      -0.00027897
Fe       7.44235459       4.51176918       4.84357969      -0.00196873      -0.00280519      -0.00132230
Fe       2.28040802       4.48695025       6.90831216      -0.00813684      -0.00984653      -0.00071693
Fe       8.05567287       1.46800338       7.12385755       0.01343390      -0.00680103       0.01855457
Fe       2.86614823       1.48815884       9.27509633       0.00158211      -0.00819648      -0.00365534
P        9.39679954       4.47768155       7.44204092      -0.00561287       0.01146064       0.00681705
P        4.21987434       4.50291213       8.98493770      -0.00725140      -0.00291748      -0.00064309
P        6.10264260       1.50110033       5.08580362      -0.00432115      -0.00388824      -0.00678940
P        1.00283780       1.49895588       6.59804009      -0.00936522       0.00128370      -0.01514861
O        9.34411574       4.47479798       5.90814357       0.00283848       0.02000832      -0.01809277
O        4.18145540       4.51092782       5.81805914      -0.00156438      -0.00570402      -0.00542006
O        6.15185464       1.49739001       8.24865815      -0.00023207      -0.00411510      -0.00940813
O        1.08616339       1.51780045       8.11328276      -0.01894994       0.01392235       0.01511293
O        5.65959208       4.50916129       8.40158092       0.00073194      -0.00141030      -0.00198932
O        0.49916536       4.51927593       7.99832751      -0.02309964      -0.02405278      -0.00016120
O        9.88321394       1.50086317       6.04823926      -0.00654084      -0.00208134      -0.00398092
O        4.66976344       1.50971622       5.67253782       0.00402095      -0.00161703       0.00207108
O        8.66581107       3.22771085       8.06388485      -0.02726157       0.02015099      -0.00984994
O        8.62658175       5.69515228       8.07094290       0.00395409       0.01678260      -0.00403159
O        3.48614619       5.73472629       8.34630237       0.00015820      -0.00242063      -0.00102555
O        6.84790072       2.72322722       5.73024726       0.00761095      -0.00196204      -0.00123418
O        1.72139274       0.26224310       5.95379020      -0.00725696       0.00719321       0.01262798
O        6.82569388       0.26150637       5.71436501       0.00204525      -0.00475393       0.00069194
O        3.49578988       3.27076137       8.34467726      -0.00322210      -0.00211963      -0.00113109
O        1.71645900       2.73746585       5.93948718      -0.00510063      -0.00630176       0.00079486
Li       0.02090182       9.11946144       0.03834273       0.00048899       0.00113758       0.00231702
Li       0.02094230       5.92671503       0.03506423      -0.00139583       0.00402470      -0.00026288
Li       5.16400464       6.01179345       2.34211180      -0.00117490      -0.00159129       0.00325728
Li       5.17143509       9.01978587       2.34148586       0.00057191       0.00247925       0.00164741
Fe       7.47724285      10.53523859       0.12040914       0.00184519       0.00369027      -0.00039597
Fe       2.25962317      10.52233859       2.20376025       0.00216721      -0.00529944       0.00074266
Fe       8.05827957       7.51833992       2.48204470      -0.00124613      -0.00021725      -0.00036364
Fe       2.88572193       7.50961329       4.55211239      -0.00334203      -0.00245731       0.00397885
P        9.34934411      10.47753230       2.75502478       0.00296204      -0.00564109      -0.00379649
P        4.21868274      10.50811782       4.29245071      -0.00526620       0.00002604       0.00334385
P        6.12002897       7.51658361       0.40729765      -0.00107995       0.00071536       0.00262219
P        0.94930700       7.50475328       1.94282338       0.00151732      -0.00379586       0.00282927
O        9.27468848      10.41211539       1.24314594      -0.00234542      -0.00361058       0.00959459
O        4.19272202      10.51219410       1.13529617      -0.00032211       0.00365099      -0.00378007
O        6.15197340       7.50993145       3.57452298       0.00015596      -0.00224775       0.00369968
O        0.98134183       7.50586384       3.47584929       0.00214384      -0.00326081       0.00224050
O        5.65692389      10.49513527       3.71470303       0.00386613      -0.00178380       0.00191814
O        0.46178032      10.50040028       3.32404535       0.00127653      -0.00620044       0.00253775
O        9.84844456       7.50187858       1.35812388      -0.00086667      -0.00812343       0.00215879
O        4.67847699       7.51053678       0.98443825       0.00127655      -0.00060061       0.00738064
O        8.64084859       9.24967145       3.45004844       0.00085092      -0.00362970       0.00694730
O        8.61398481      11.71341436       3.39120534      -0.00016928       0.00059403       0.00102423
O        3.50391793      11.74452104       3.65281307       0.00019592      -0.00313725       0.00055070
O        6.84444242       8.74748238       1.04686794       0.00105678       0.00376341       0.00406867
O        1.69121856       6.27326014       1.31061519      -0.00125738      -0.00528211       0.00280604
O        6.85062095       6.28722176       1.05048237       0.00240988      -0.00015682       0.00434709
O        3.47098569       9.28603982       3.64881269       0.00368136      -0.00302400      -0.00100617
O        1.69150220       8.73465925       1.30993846      -0.00091426      -0.00645669       0.00083009
Li      -0.00438163       9.02052826       4.71840346       0.00215682      -0.00018473       0.00775773
Li      -0.00192686       6.00722762       4.69965635       0.00135619      -0.00164686      -0.00046184
Li       5.16587608       6.01011938       7.04608254       0.00065442      -0.00291774       0.00037818
Li       5.16916489       9.01358932       7.04600207       0.00096394       0.00136249       0.00299987
Fe       7.45429423      10.50235623       4.85096207      -0.00053347      -0.00300045       0.00489197
Fe       2.27120690      10.52210886       6.91719574      -0.00468029       0.00676949      -0.00246125
Fe       8.07446985       7.51970327       7.20016934       0.00256295       0.00367727       0.00300182
Fe       2.88859382       7.51065296       9.25287107       0.00021412      -0.00082949      -0.00041452
P        9.39860713      10.54674392       7.44664116       0.00556027      -0.01237771       0.00403415
P        4.22308220      10.51485646       8.98778350      -0.00501290      -0.00189955       0.00313154
P        6.12042456       7.50876092       5.10617688      -0.00582779      -0.00124369      -0.00190611
P        0.97127796       7.50155155       6.64422029       0.00823176      -0.00491305       0.00012195
O        9.34858911      10.53437752       5.90413410       0.00279383      -0.01073643      -0.00459654
O        4.18011971      10.50310868       5.82536604      -0.00539771       0.00076378      -0.00105263
O        6.15610795       7.50881477       8.25873087      -0.00027974      -0.00015899       0.00767459
O        1.01243229       7.49960832       8.17367233       0.00279705      -0.00791253      -0.00111660
O        5.66070863      10.50810724       8.40392760       0.00408268      -0.00103292      -0.00237266
O        0.50565203      10.47618078       7.97660561      -0.00533603       0.00150311      -0.00364745
O        9.86016624       7.50071364       6.07357265      -0.00096298      -0.00210191      -0.00416957
O        4.68060645       7.50608380       5.68373516       0.00162931      -0.00043027      -0.00027066
O        8.64684197       9.30451215       8.07231284       0.00746697      -0.01034559       0.00179916
O        8.61491499      11.76024377       8.03800947      -0.01651341      -0.01713397      -0.00618194
O        3.49670641      11.74506304       8.34460388       0.00021757      -0.00186951      -0.00196809
O        6.84986546       8.73728831       5.75287203       0.00100242      -0.00007936       0.00293404
O        1.69848211       6.27013743       5.99423523      -0.00322049      -0.00734431       0.00243821
O        6.85501654       6.28070761       5.75015412       0.00275742      -0.00338931       0.00120849
O        3.48588523       9.28262529       8.35144559       0.00299811      -0.00240364       0.00131400
O        1.70539337       8.72715169       5.99278321       0.00098807      -0.00614477       0.00249753
111
Lattice="10.332 0.0 6.326525364395227e-16 1.932963424911317e-15 12.02 7.3601272628755925e-16 0.0 0.0 9.384" Properties=species:S:1:pos:R:3:forces:R:3 energy=-759.2595083563242 pbc="T T T"
Li      -0.50430057       1.90914307      -0.32719113       0.04410374       0.07331791       0.02384270
Li       5.16309557      -0.01011762       2.33507349      -0.00156280       0.00127602      -0.00463195
Li       5.16353224       3.01298467       2.33605475      -0.00064841      -0.00250666      -0.00512417
Fe       7.46049447       4.50148725       0.13434728      -0.00222286      -0.00025941      -0.00092016
Fe       2.25480151       4.48306423       2.19744682       0.00343419       0.00466782      -0.00174935
Fe       8.06101430       1.49472637       2.50839961       0.00584905      -0.00269147      -0.01097457
Fe       2.89361147       1.50008187       4.51586013      -0.00676569      -0.00064295      -0.00942406
P        9.34859593       4.53403853       2.75720796       0.00138249       0.00108062      -0.00958707
P        4.21592546       4.51449412       4.28697734      -0.00183354      -0.00150035       0.00520961
P        6.12593344       1.50083880       0.39601911      -0.01042241      -0.00046251       0.01062700
P        0.97363515       1.48934967       1.96787241       0.01052087      -0.00310790      -0.01074126
O        9.27949571       4.58496000       1.23962429      -0.00323196      -0.00638974       0.00826106
O        4.19274042       4.51114818       1.13388758       0.00060660      -0.00577861      -0.00372565
O        6.13210421       1.50830579       3.55113899      -0.00881008      -0.00012412       0.00222317
O        1.00017068       1.49704850       3.51022579      -0.01160438      -0.00267763      -0.00233639
O        5.65521138       4.52514902       3.71044767       0.00366104       0.00044717      -0.00067375
O        0.46088701       4.51516255       3.32513204       0.00065272      -0.00017158       0.00025361
O        9.84792976       1.48900095       1.47196573      -0.01179165      -0.00084003      -0.00820593
O        4.69028100       1.50823058       0.98082846       0.01122103       0.00159856      -0.01097222
O        8.61157573       3.29987070       3.39296194      -0.00331504      -0.00482939       0.00110948
O        8.63976625       5.76472971       3.44147865       0.00044498      -0.00067073       0.00184960
O        3.47036420       5.73790992       3.64707127       0.00435243       0.00195183      -0.00229567
O        6.86851987       2.72920129       1.03203887       0.00664606      -0.00231661      -0.00570826
O        1.76077580       0.28362674       1.37043288      -0.00249697      -0.00316168      -0.01185972
O        6.85712074       0.27347111       1.04152612       0.00216212      -0.00044241      -0.00212650
O        3.49825561       3.28038318       3.64389839      -0.00248216       0.00053036      -0.00406379
O        1.72865466       2.71250584       1.35233654      -0.00132303      -0.00077069      -0.01381421
Li       0.01485419       3.00728492       4.66907717       0.00328131      -0.00884791      -0.00075669
Li       0.01305011      -0.01360511       4.67202623       0.00386292       0.00306700       0.00048182
Li       5.15475027       0.00203172       7.04556513      -0.00390838      -0.00393531      -0.00025634
Li       5.15438040       2.99684985       7.04667141      -0.00107492       0.00113457       0.00014533
Fe       7.44655342       4.51659563       4.84814598      -0.00138666       0.00106045       0.00090408
Fe       2.28252459       4.49189999       6.90955609      -0.00523615      -0.01015296      -0.00206871
Fe       8.04193886       1.47765696       7.09167526       0.00807584      -0.00353510       0.00382312
Fe       2.86416452       1.49636882       9.27652656      -0.00298013      -0.00279806      -0.00321181
P        9.40830938       4.46301939       7.45014040       0.00790142       0.00718292       0.01330319
P        4.22352073       4.50551135       8.98633695      -0.00836713      -0.00114739       0.00150912
P        6.09436728       1.50094671       5.08173003      -0.00738967      -0.00319394      -0.01074153
P        1.00952296       1.49924497       6.59177948      -0.01232754       0.00180854      -0.02655779
O        9.34269523       4.45828525       5.91437459       0.00083800       0.00953153      -0.01490728
O        4.18329743       4.51472328       5.82027852      -0.00258934      -0.00487822      -0.00620642
O        6.15547023       1.49915255       8.24684812       0.00314592      -0.00317315      -0.01402381
O        1.09344301       1.51209225       8.10768260      -0.02221784       0.01079981       0.01778248
O        5.66335028       4.50907788       8.40344201       0.00515959      -0.00159066      -0.00220570
O        0.51218802       4.54776554       7.98666546      -0.01842251      -0.00641647      -0.00794655
O        9.88685305       1.49961083       6.04739916      -0.00222883      -0.00118256      -0.00812642
O        4.66448621       1.50792159       5.67286604      -0.00149123      -0.00012851       0.00443295
O        8.69136427       3.20387559       8.07292644      -0.01155663       0.00629010      -0.00677998
O        8.61990842       5.67706064       8.07079208      -0.00003402       0.00592309      -0.00143717
O        3.49147322       5.73865009       8.34771713       0.00484530       0.00055874      -0.00018836
O        6.83833552       2.72520276       5.72427204       0.00514405      -0.00267381      -0.00438247
O        1.72471420       0.26130498       5.94652773      -0.00597607       0.01107144       0.01515758
O        6.82007453       0.26219570       5.71088362      -0.00149425      -0.00508821      -0.00385742
O        3.49806745       3.27439985       8.34485806      -0.00177563      -0.00005326      -0.00130625
O        1.72080519       2.73873745       5.93804059      -0.00464214      -0.00995161       0.00524373
Li       0.02304031       9.12062573       0.03946774       0.00231670       0.00300932       0.00302266
Li       0.02432994       5.91454540       0.04078302       0.00145897      -0.00241000       0.00335642
Li       5.16671583       6.01078675       2.34158686       0.00032138      -0.00181756       0.00302788
Li       5.17119334       9.01834877       2.34128405       0.00123217       0.00277295       0.00178158
Fe       7.47431680      10.53361141       0.12431589       0.00047602       0.00413625       0.00111350
Fe       2.25851101      10.52788492       2.20211523       0.00255737      -0.00467727      -0.00058929
Fe       8.05930242       7.51487007       2.48397412      -0.00031248      -0.00089755       0.00042906
Fe       2.88557785       7.51094141       4.55168697      -0.00331609      -0.00138925       0.00602216
P        9.34951076      10.47985830       2.75591541       0.00253806      -0.00615549      -0.00534063
P        4.21860626      10.50812069       4.29079254      -0.00300014      -0.00168562       0.00564779
P        6.12142679       7.51538596       0.40893858      -0.00126945       0.00096630       0.00244249
P        0.94874450       7.50854005       1.94268277       0.00239677      -0.00184733       0.00335218
O        9.27579960      10.41694154       1.24321732      -0.00250972      -0.00086553       0.01092097
O        4.19306207      10.51295033       1.13528946      -0.00012739       0.00538814      -0.00499859
O        6.15382607       7.51089110       3.57668069       0.00139888      -0.00105164       0.00643155
O        0.98035750       7.50900917       3.47579082       0.00191551      -0.00151147       0.00313683
O        5.65687707      10.49528667       3.71292968       0.00399001      -0.00323002       0.00072562
O        0.46184145      10.50226398       3.32488645       0.00140456      -0.00489127       0.00326015
O        9.84813276       7.50731049       1.35755323      -0.00118878      -0.00385719       0.00218311
O        4.67868805       7.51234199       0.98299238       0.00266290       0.00057965       0.00913270
O        8.64174478       9.25138931       3.44989737       0.00211071      -0.00332768       0.00656806
O        8.61313418      11.71526501       3.39192751      -0.00201377       0.00184645       0.00130435
O        3.50396189      11.74413661       3.65032464      -0.00048469      -0.00152928      -0.00194977
O        6.84599121       8.74600330       1.04919465       0.00264347       0.00449887       0.00667337
O        1.69144762       6.27744606       1.31101756      -0.00113377      -0.00188264       0.00353893
O        6.84897966       6.28609421       1.05266090       0.00289033      -0.00114495       0.00701262
O        3.47064407       9.28601535       3.64852155       0.00459680      -0.00366354      -0.00161623
O        1.69173065       8.73860114       1.31040985      -0.00063478      -0.00407002       0.00210835
Li      -0.00385200       9.02051438       4.71626288       0.00297417       0.00058934       0.00811902
Li      -0.00172869       6.00578178       4.70542859       0.00291074      -0.00215141       0.00385325
Li       5.16867662       6.01046578       7.04725664       0.00252438      -0.00272710       0.00227062
Li       5.17024075       9.01410265       7.04684945       0.00198879       0.00205445       0.00360711
Fe       7.45303251      10.50036979       4.84986537      -0.00107491      -0.00532736       0.00319007
Fe       2.27527766      10.52361805       6.91581007      -0.00300355       0.00820833      -0.00308032
Fe       8.07728840       7.51532156       7.20693329       0.00466812       0.00364863       0.00585171
Fe       2.88836962       7.51153033       9.25349485       0.00157270      -0.00037817       0.00000193
P        9.40364538      10.56220147       7.45084719       0.01110724      -0.00401753       0.01001746
P        4.22335189      10.51691337       8.98776987      -0.00804664      -0.00039168       0.00363964
P        6.12207317       7.51015615       5.10840820      -0.00658396      -0.00090723      -0.00298795
P        0.97196637       7.50660214       6.64502166       0.01349738      -0.00195451       0.00034355
O        9.34559975      10.55221685       5.90986206       0.00117442      -0.00273873      -0.00542733
O        4.18176263      10.50422113       5.82397296      -0.00526766       0.00270208      -0.00448545
O        6.16116148       7.51030381       8.25985110       0.00331075       0.00050678       0.01135208
O        1.01493985       7.50726576       8.17407708       0.00416545      -0.00238451      -0.00038311
O        5.66183416      10.51094029       8.40452411       0.00583563       0.00014664      -0.00306303
O        0.51004021      10.47537166       7.97898525      -0.00886975       0.00486272      -0.00497957
O        9.85777082       7.50400316       6.07990056      -0.00312518      -0.00078555      -0.00147714
O        4.68162965       7.50878086       5.68458850       0.00224628       0.00028166       0.00015504
O        8.63483312       9.32852626       8.07111085       0.00152442       0.00201461       0.00160731
O        8.64931946      11.79733848       8.05394369      -0.00500091      -0.00013982      -0.00153799
O        3.49746519      11.74739302       8.34498548      -0.00036553       0.00015050      -0.00164005
O        6.85246249       8.73808434       5.75542338       0.00301899       0.00021479       0.00548930
O        1.70059994       6.27862441       5.99084682      -0.00163690      -0.00110090       0.00157575
O        6.85525525       6.28258668       5.75429387       0.00316216      -0.00278206       0.00441668
O        3.48777790       9.28426107       8.35056860       0.00439716      -0.00123854       0.00067089
O        1.70105703       8.73373599       5.99041254      -0.00170495      -0.00285496       0.00193846
111
Lattice="10.332 0.0 6.326525364395227e-16 1.932963424911317e-15 12.02 7.3601272628755925e-16 0.0 0.0 9.384" Properties=species:S:1:pos:R:3:forces:R:3 energy=-759.2430870680619 pbc="T T T"
Li      -0.58862319       1.50265893      -0.37817783       0.03057187       0.00001743       0.01765828
Li       5.16224587      -0.00972893       2.33472791      -0.00182766       0.00219001      -0.00640023
Li       5.16223584       3.01474765       2.33473199      -0.00182763      -0.00219066      -0.00639973
Fe       7.46944726       4.49338006       0.13103004      -0.00008745      -0.00446701       0.00211768
Fe       2.25618660       4.48915622       2.19982288       0.00253479       0.00368799      -0.00175185
Fe       8.06236788       1.50250578       2.51028717       0.00731955      -0.00000485      -0.01302470
Fe       2.89190652       1.50250883       4.51291687      -0.01157070      -0.00001237      -0.01280491
P        9.34902204       4.54066270       2.75760071       0.00215910       0.00488563      -0.00570328
P        4.21790121       4.51631738       4.28881711      -0.00157848       0.00097871       0.00687144
P        6.12581824       1.50251158       0.39496609      -0.01247082      -0.00002944       0.01062795
P        0.97415739       1.50250672       1.96491560       0.00911580       0.00002611      -0.01860958
O        9.27709898       4.60056963       1.24352234      -0.00251839      -0.00015395       0.01188602
O        4.19330401       4.51184638       1.13495266      -0.00030453      -0.00601714      -0.00483016
O        6.12822848       1.50251751       3.54854359      -0.01187489       0.00000420       0.00109000
O        0.99962204       1.50251744       3.50826311      -0.01655338      -0.00001760      -0.00622023
O        5.65675611       4.52832184       3.71202697       0.00393248       0.00243940       0.00009171
O        0.46136382       4.51915417       3.32628959       0.00134590       0.00221323       0.00372577
O        9.84794173       1.50248600       1.47191232      -0.01551496       0.00001812      -0.01876038
O        4.69011706       1.50251767       0.97881192       0.01232272      -0.00000343      -0.01498840
O        8.61140081       3.30578774       3.39265973      -0.00314053      -0.00365946       0.00074042
O        8.64197213       5.77009280       3.44948831       0.00282845       0.00192867       0.00775762
O        3.47062558       5.73882078       3.64800202       0.00496738       0.00355667      -0.00197131
O        6.86340865       2.72975188       1.03638626       0.00457308      -0.00119671      -0.00463133
O        1.74803872       0.28812874       1.36287720      -0.00312091      -0.00298079      -0.01496970
O        6.86340060       0.27526947       1.03638965       0.00456737       0.00121227      -0.00464049
O        3.50230888       3.28108832       3.64720860      -0.00223766       0.00063840      -0.00393640
O        1.74799776       2.71690185       1.36285521      -0.00311992       0.00293104      -0.01496301
Li       0.01559633       3.01236756       4.66928173       0.00376876      -0.00801117      -0.00103955
Li       0.01558887      -0.00735620       4.66926096       0.00376849       0.00801025      -0.00102305
Li       5.15111940       0.00449926       7.04566704      -0.00497772      -0.00284558      -0.00049416
Li       5.15110218       3.00050840       7.04567409      -0.00496750       0.00284742      -0.00050219
Fe       7.45109121       4.52245533       4.85034029      -0.00085911       0.00404900       0.00376291
Fe       2.28053333       4.49630080       6.91261594      -0.00267849      -0.00996267      -0.00350829
Fe       8.03286828       1.50249107       7.07050718       0.00921626      -0.00000262      -0.00333844
Fe       2.86081827       1.50250716       9.27643981      -0.00619916      -0.00000662      -0.00617684
P        9.41182714       4.44646792       7.45736431       0.01463567      -0.00224343       0.01627228
P        4.22421799       4.50687875       8.98739178      -0.00928569      -0.00015352       0.00307574
P        6.08844667       1.50251054       5.07837957      -0.01040328      -0.00001588      -0.01420607
P        1.01202927       1.50248390       6.59003319      -0.01531073       0.00009074      -0.03316290
O        9.34181353       4.45025420       5.91876864       0.00069182      -0.00536852      -0.00730626
O        4.18313560       4.51849768       5.82223916      -0.00464447      -0.00396634      -0.00677494
O        6.15743686       1.50251090       8.24543181       0.00604121      -0.00000082      -0.01740939
O        1.09506031       1.50247917       8.10583764      -0.02630483       0.00001174       0.01939758
O        5.66374237       4.51125925       8.40488769       0.00638661      -0.00150142      -0.00252329
O        0.51738407       4.55525728       7.98229033      -0.01236831      -0.00305121      -0.00609093
O        9.88900675       1.50249084       6.04523343       0.00026972       0.00002055      -0.01430951
O        4.66060693       1.50251539       5.67243546      -0.00657253      -0.00000487       0.00301894
O        8.69930052       3.18559998       8.07760452       0.00265579      -0.00868993      -0.00027217
O        8.62023482       5.66679387       8.07155777      -0.00379463      -0.01018561       0.00117580
O        3.49086731       5.74008835       8.34934165       0.00543632       0.00094844       0.00026175
O        6.82394732       2.73433933       5.71443215      -0.00155893       0.00082847      -0.00631310
O        1.72497744       0.26372151       5.94026367      -0.00575401       0.01251533       0.01106668
O        6.82393492       0.27066892       5.71441674      -0.00156664      -0.00082137      -0.00630019
O        3.49897309       3.27622684       8.34472651      -0.00113294      -0.00037258      -0.00207220
O        1.72498642       2.74125765       5.94028840      -0.00581718      -0.01254749       0.01103518
Li       0.02525248       9.11976137       0.04176199       0.00345185       0.00502119       0.00465907
Li       0.02524678       5.90526447       0.04177135       0.00345400      -0.00503197       0.00465215
Li       5.16979173       6.00877845       2.34101596       0.00152716      -0.00255278       0.00233175
Li       5.16980612       9.01624080       2.34101567       0.00152671       0.00254367       0.00231668
Fe       7.46945571      10.53164018       0.13102087      -0.00010285       0.00445686       0.00211798
Fe       2.25620660      10.53586194       2.19983101       0.00250088      -0.00370372      -0.00177601
Fe       8.05984344       7.51250702       2.48490275       0.00039808       0.00000219       0.00207496
Fe       2.88549033       7.51250684       4.55159659      -0.00298425       0.00001531       0.00730312
P        9.34902304      10.48435070       2.75758798       0.00211529      -0.00483928      -0.00570462
P        4.21791934      10.50869781       4.28881686      -0.00148520      -0.00089997       0.00669784
P        6.12303031       7.51250567       0.40977027       0.00023708       0.00006690       0.00320488
P        0.94854388       7.51251204       1.94272133       0.00263961       0.00003079       0.00387115
O        9.27709831      10.42444369       1.24351090      -0.00251425       0.00014607       0.01189087
O        4.19331885      10.51317152       1.13494691      -0.00033358       0.00602282      -0.00475313
O        6.15514625       7.51250205       3.57801787       0.00312158      -0.00001172       0.00855952
O        0.97956238       7.51251192       3.47594068       0.00118790      -0.00000063       0.00422719
O        5.65677347      10.49668849       3.71201460       0.00382286      -0.00244031       0.00014960
O        0.46136456      10.50586857       3.32627623       0.00137934      -0.00222143       0.00372379
O        9.84808891       7.51251144       1.35695402      -0.00142253      -0.00000172       0.00254301
O        4.67940890       7.51250665       0.98143478       0.00420734       0.00000420       0.00846901
O        8.64197679       9.25492001       3.44947651       0.00283699      -0.00195479       0.00776546
O        8.61139621      11.71922221       3.39265191      -0.00310876       0.00364190       0.00072375
O        3.50233571      11.74393555       3.64721065      -0.00224810      -0.00069761      -0.00391149
O        6.84798929       8.74255737       1.05182095       0.00397076       0.00332482       0.00885573
O        1.69198302       6.28198000       1.31130693      -0.00079125       0.00122908       0.00384555
O        6.84798635       6.28245585       1.05182502       0.00400417      -0.00337558       0.00887723
O        3.47063809       9.28619865       3.64800247       0.00493536      -0.00357673      -0.00198577
O        1.69198856       8.74304190       1.31130579      -0.00081530      -0.00125731       0.00386506
Li      -0.00247429       9.02069817       4.71187437       0.00383625       0.00248303       0.00782682
Li      -0.00247374       6.00433036       4.71187852       0.00383289      -0.00250502       0.00780171
Li       5.17056000       6.01037635       7.04753554       0.00392024      -0.00316845       0.00339824
Li       5.17057505       9.01463876       7.04753136       0.00392177       0.00316709       0.00340416
Fe       7.45109685      10.50255335       4.85033235      -0.00086819      -0.00406647       0.00377129
Fe       2.28054115      10.52870973       6.91261645      -0.00269463       0.00992173      -0.00350152
Fe       8.07964990       7.51249650       7.21181872       0.00654930       0.00003317       0.00986874
Fe       2.88827107       7.51250353       9.25398014       0.00249789       0.00003343       0.00022770
P        9.41181527      10.57852713       7.45735170       0.01452778       0.00231121       0.01617363
P        4.22422715      10.51813620       8.98738799      -0.00911079       0.00022545       0.00297711
P        6.12348456       7.51250217       5.10983043      -0.00579551       0.00004990      -0.00284460
P        0.97185192       7.51250813       6.64589813       0.01504895       0.00003631       0.00128809
O        9.34180490      10.57473225       5.91875192       0.00070291       0.00539301      -0.00723974
O        4.18315782      10.50651465       5.82223510      -0.00466347       0.00396556      -0.00664943
O        6.16578595       7.51250232       8.26012701       0.00837344      -0.00000454       0.01319094
O        1.01528289       7.51251226       8.17476705       0.00413783       0.00000113       0.00053801
O        5.66375548      10.51375345       8.40488150       0.00624561       0.00147861      -0.00247974
O        0.51737304      10.46975945       7.98227077      -0.01226072       0.00302473      -0.00604951
O        9.85518658       7.51250551       6.08466096      -0.00601500      -0.00000637       0.00226125
O        4.68260758       7.51250198       5.68518459       0.00350042       0.00001370       0.00068133
O        8.62024000       9.35819219       8.07154927      -0.00377855       0.01017015       0.00119816
O        8.69925706      11.83938213       8.07758109       0.00269602       0.00867014      -0.00027968
O        3.49899093      11.74879234       8.34471921      -0.00117019       0.00033520      -0.00206582
O        6.85531123       8.73988295       5.75697049       0.00491831       0.00135219       0.00718324
O        1.69918802       6.28534424       5.98945370      -0.00368368       0.00154827       0.00152996
O        6.85530669       6.28512185       5.75697709       0.00495708      -0.00140077       0.00717972
O        3.49087345       9.28492888       8.34934154       0.00539908      -0.00098541       0.00023138
O        1.69918983       8.73966974       5.98944468      -0.00370096      -0.00158201       0.00157965
111
Lattice="10.332 0.0 6.326525364395227e-16 1.932963424911317e-15 12.02 7.3601272628755925e-16 0.0 0.0 9.384" Properties=species:S:1:pos:R:3:forces:R:3 energy=-759.2594814744197 pbc="T T T"
Li      -0.50441693       1.09615005      -0.32725337       0.04406889      -0.07323816       0.02382780
Li       5.16354032      -0.00797000       2.33604917      -0.00065633       0.00250335      -0.00512080
Li       5.16308565       3.01513402       2.33507659      -0.00155751      -0.00127847      -0.00463562
Fe       7.47431163       4.49140397       0.12432097       0.00047481      -0.00413863       0.00111635
Fe       2.25849819       4.49712751       2.20210988       0.00256126       0.00467169      -0.00058389
Fe       8.06101662       1.51028493       2.50840283       0.00584463       0.00269059      -0.01097004
Fe       2.89360908       1.50492697       4.51585653      -0.00676260       0.00064828      -0.00942560
P        9.34951085       4.54515600       2.75592487       0.00254207       0.00615653      -0.00534433
P        4.21859089       4.51689387       4.29079200      -0.00299462       0.00168806       0.00564778
P        6.12593416       1.50418065       0.39601855      -0.01042576       0.00046046       0.01062348
P        0.97363862       1.51565967       1.96787060       0.01052038       0.00308699      -0.01074883
O        9.27580066       4.60807277       1.24322614      -0.00251226       0.00086135       0.01091753
O        4.19304996       4.51206590       1.13529202      -0.00011744      -0.00539240      -0.00498562
O        6.13209972       1.49672009       3.55113615      -0.00881484       0.00011979       0.00222132
O        1.00016931       1.50798099       3.51022538      -0.01159602       0.00266486      -0.00233709
O        5.65686402       4.52972432       3.71293636       0.00399968       0.00322869       0.00071554
O        0.46184096       4.52275600       3.32489773       0.00139860       0.00488686       0.00325305
O        9.84793163       1.51597404       1.47196960      -0.01179319       0.00085334      -0.00821363
O        4.69028171       1.49679642       0.98082647       0.01122260      -0.00160446      -0.01097493
O        8.61313667       3.30974631       3.39193335      -0.00202027      -0.00184620       0.00130134
O        8.64174220       5.77362362       3.44990670       0.00210711       0.00332702       0.00656308
O        3.47063432       5.73900221       3.64852064       0.00460233       0.00365609      -0.00160920
O        6.85712767       2.73154581       1.04152611       0.00216110       0.00043982      -0.00213267
O        1.72870103       0.29251789       1.35236411      -0.00134161       0.00076179      -0.01381578
O        6.86851655       0.27581727       1.03203898       0.00664998       0.00231380      -0.00570590
O        3.50394340       3.28088091       3.65032074      -0.00047507       0.00152720      -0.00194803
O        1.76074265       2.72139727       1.37041247      -0.00247756       0.00315754      -0.01185152
Li       0.01305825       3.01861757       4.67203584       0.00386245      -0.00307086       0.00047492
Li       0.01485162      -0.00227089       4.66906452       0.00327997       0.00884197      -0.00075631
Li       5.15439225       0.00815740       7.04666593      -0.00109013      -0.00113402       0.00014830
Li       5.15473086       3.00297691       7.04556939      -0.00389824       0.00393750      -0.00026172
Fe       7.45302825       4.52464251       4.84987006      -0.00107180       0.00532542       0.00318047
Fe       2.27527188       4.50138981       6.91580782      -0.00299639      -0.00821050      -0.00307313
Fe       8.04192838       1.52734360       7.09165087       0.00807164       0.00353399       0.00381142
Fe       2.86416175       1.50863647       9.27652598      -0.00298741       0.00279675      -0.00320856
P        9.40365526       4.46279294       7.45085859       0.01110321       0.00400359       0.01002299
P        4.22334124       4.50809956       8.98777274      -0.00803405       0.00039274       0.00362302
P        6.09436029       1.50407199       5.08172629      -0.00739231       0.00319045      -0.01074333
P        1.00952677       1.50573730       6.59177769      -0.01232908      -0.00179037      -0.02656267
O        9.34560495       4.47277346       5.90987512       0.00116607       0.00273582      -0.00542882
O        4.18174321       4.52079042       5.82397265      -0.00525047      -0.00270183      -0.00448288
O        6.15547322       1.50586697       8.24684708       0.00314849       0.00316276      -0.01402613
O        1.09344524       1.49286772       8.10768067      -0.02221631      -0.01074448       0.01778393
O        5.66182473       4.51406831       8.40452866       0.00583985      -0.00014928      -0.00306060
O        0.51004771       4.54964098       7.97899971      -0.00887360      -0.00486300      -0.00498522
O        9.88685599       1.50538956       6.04739762      -0.00222437       0.00118940      -0.00812780
O        4.66448151       1.49710182       5.67286579      -0.00149438       0.00011755       0.00443045
O        8.64935873       3.22763584       8.05396734      -0.00499681       0.00013106      -0.00154022
O        8.63482431       5.69646068       8.07111307       0.00151452      -0.00202023       0.00161154
O        3.48777193       5.74075305       8.35056897       0.00440250       0.00123381       0.00067231
O        6.82007345       2.74281777       5.71088706      -0.00149982       0.00508562      -0.00386697
O        1.72080290       0.26625117       5.93802083      -0.00464005       0.00996764       0.00526598
O        6.83832418       0.27980989       5.72426144       0.00514261       0.00267106      -0.00437932
O        3.49745295       3.27762004       8.34499000      -0.00035507      -0.00015433      -0.00164008
O        1.72472435       2.74368314       5.94654591      -0.00598622      -0.01105015       0.01512516
Li       0.02434059       9.11048549       0.04078191       0.00145180       0.00240809       0.00335600
Li       0.02303342       5.90439612       0.03947318       0.00232695      -0.00301804       0.00302701
Li       5.17118243       6.00666525       2.34128531       0.00124143      -0.00277140       0.00178299
Li       5.16672888       9.01422669       2.34158429       0.00031325       0.00182053       0.00302848
Fe       7.46050418      10.52353327       0.13434609      -0.00222026       0.00025687      -0.00091937
Fe       2.25481446      10.54194804       2.19745332       0.00342969      -0.00466581      -0.00175839
Fe       8.05930286       7.51014441       2.48397509      -0.00031040       0.00089543       0.00043289
Fe       2.88557762       7.51407539       4.55168704      -0.00331434       0.00138473       0.00602128
P        9.34859589      10.49097272       2.75720094       0.00138076      -0.00108221      -0.00957539
P        4.21594371      10.51051884       4.28697761      -0.00184097       0.00150237       0.00521194
P        6.12142806       7.50962596       0.40893975      -0.00126907      -0.00097842       0.00244092
P        0.94874414       7.51648007       1.94268267       0.00239710       0.00183871       0.00335354
O        9.27949251      10.44004403       1.23962040      -0.00322884       0.00637809       0.00826508
O        4.19275617      10.51386582       1.13388553       0.00059534       0.00577586      -0.00373924
O        6.15382743       7.51411186       3.57668238       0.00140136       0.00105412       0.00643325
O        0.98035651       7.51601251       3.47579085       0.00191628       0.00150474       0.00313746
O        5.65522733      10.49985829       3.71044138       0.00364932      -0.00044467      -0.00066289
O        0.46088766      10.50985624       3.32512389       0.00065792       0.00016803       0.00026096
O        9.84813259       7.51771097       1.35755241      -0.00118878       0.00384965       0.00218399
O        4.67868828       7.51266996       0.98299072       0.00266502      -0.00058100       0.00913323
O        8.63977141       9.26028087       3.44147856       0.00045133       0.00066787       0.00185951
O        8.61157210      11.72513854       3.39295622      -0.00331017       0.00482756       0.00111593
O        3.49827875      11.74463366       3.64390295      -0.00249291      -0.00053395      -0.00406794
O        6.84897979       8.73891787       1.05265935       0.00289637       0.00115284       0.00701788
O        1.69172612       6.28641635       1.31041061      -0.00063020       0.00406964       0.00210601
O        6.84599097       6.27900867       1.04919924       0.00264183      -0.00449166       0.00667153
O        3.47037487       9.28710693       3.64707225       0.00434652      -0.00196101      -0.00230006
O        1.69145283       8.74757112       1.31101760      -0.00113827       0.00188326       0.00354319
Li      -0.00172560       9.01924251       4.70542974       0.00290804       0.00214717       0.00385673
Li      -0.00385435       6.00450817       4.71626468       0.00297719      -0.00059682       0.00811835
Li       5.17023024       6.01090873       7.04685439       0.00199834      -0.00205248       0.00359996
Li       5.16868965       9.01454527       7.04725251       0.00251872       0.00273255       0.00227970
Fe       7.44656099      10.50841231       4.84814487      -0.00139235      -0.00106577       0.00091155
Fe       2.28253453      10.53310713       6.90955870      -0.00523960       0.01015253      -0.00207651
Fe       8.07729089       7.50969139       7.20693907       0.00466875      -0.00364221       0.00585259
Fe       2.88836945       7.51348366       9.25349487       0.00157471       0.00039140       0.00000383
P        9.40831129      10.56200489       7.45014180       0.00791553      -0.00717328       0.01330096
P        4.22353472      10.51950071       8.98633463      -0.00838186       0.00114993       0.00152723
P        6.12207455       7.51484902       5.10840995      -0.00658224       0.00089731      -0.00298773
P        0.97196653       7.51841539       6.64502255       0.01349883       0.00194838       0.00034312
O        9.34268599      10.56673614       5.91437376       0.00084236      -0.00951543      -0.01489600
O        4.18331929      10.51028643       5.82027888      -0.00260798       0.00487750      -0.00620892
O        6.16116613       7.51470039       8.25985179       0.00331400      -0.00049697       0.01135445
O        1.01494093       7.51776021       8.17407772       0.00416465       0.00236297      -0.00038179
O        5.66336360      10.51593205       8.40343840       0.00515809       0.00158947      -0.00220617
O        0.51219272      10.47722955       7.98664800      -0.01840985       0.00641078      -0.00793836
O        9.85776853       7.52101436       6.07990554      -0.00312742       0.00077958      -0.00147283
O        4.68163043       7.51622499       5.68458916       0.00224776      -0.00027121       0.00015539
O        8.61990175       9.34796414       8.07078957      -0.00003469      -0.00590920      -0.00143712
O        8.69137721      11.82115499       8.07292945      -0.01153219      -0.00627624      -0.00677306
O        3.49808277      11.75061205       8.34485405      -0.00178497       0.00004810      -0.00130929
O        6.85525857       8.74241795       5.75429241       0.00316295       0.00279115       0.00442668
O        1.70105125       6.29127628       5.99041914      -0.00170726       0.00285239       0.00191899
O        6.85246171       6.28692120       5.75543029       0.00302164      -0.00020558       0.00548187
O        3.49148400       9.28636256       8.34771601       0.00484395      -0.00056672      -0.00018732
O        1.70060298       8.74638687       5.99083733      -0.00163633       0.00109658       0.00159332
111
Lattice="10.332 0.0 6.326525364395227e-16 1.932963424911317e-15 12.02 7.3601272628755925e-16 0.0 0.0 9.384" Properties=species:S:1:pos:R:3:forces:R:3 energy=-759.3403836737556 pbc="T T T"
Li      -0.33445957       0.72793700      -0.23795844       0.12767794      -0.23455828       0.07028484
Li       5.16631169      -0.00573024       2.33718451       0.00169117       0.00375670      -0.00292303
Li       5.16380978       3.01492439       2.33592843      -0.00055010      -0.00074499      -0.00205512
Fe       7.47724075       4.48977152       0.12040992       0.00184492      -0.00368990      -0.00039403
Fe       2.25961486       4.50267359       2.20375721       0.00216926       0.00529926       0.00074465
Fe       8.06098499       1.51681956       2.49947605       0.00480184       0.00591098      -0.01413575
Fe       2.89269322       1.50709681       4.51931154      -0.00451354       0.00192941      -0.00545921
P        9.34934502       4.54748024       2.75503146       0.00295955       0.00563903      -0.00380182
P        4.21867101       4.51689298       4.29245094      -0.00525540      -0.00002989       0.00334539
P        6.12395892       1.50458525       0.39721464      -0.00679736       0.00094170       0.00741704
P        0.96488212       1.52828695       1.96392451       0.00283226       0.00867751      -0.00275718
O        9.27468889       4.61289934       1.24315268      -0.00234779       0.00360544       0.00959139
O        4.19271250       4.51281851       1.13529811      -0.00031349      -0.00365557      -0.00377810
O        6.13893115       1.49482459       3.55427020      -0.00133436       0.00043902       0.00230401
O        0.99639080       1.50960498       3.50561646      -0.01141519       0.00351771      -0.00981919
O        5.65691399       4.52987290       3.71470840       0.00387071       0.00178303       0.00191647
O        0.46178041       4.52461535       3.32405374       0.00127462       0.00619813       0.00253026
O        9.84349637       1.52707679       1.45600841      -0.01069695       0.00549639      -0.01226787
O        4.68783473       1.49384826       0.98274840       0.00562817      -0.00154337      -0.00703614
O        8.61398717       3.31159576       3.39120911      -0.00017177      -0.00059337       0.00102331
O        8.64084670       5.77533941       3.45005585       0.00084956       0.00363023       0.00694277
O        3.47097802       5.73897277       3.64881195       0.00368398       0.00302072      -0.00100372
O        6.85123295       2.73249697       1.04451637      -0.00150684       0.00079276      -0.00093427
O        1.69948586       0.29376553       1.33270609      -0.01463203       0.00281395      -0.02363829
O        6.86650199       0.27439163       1.03096116       0.00243653       0.00174226      -0.00474838
O        3.50390499       3.28049109       3.65281140       0.00020326       0.00313754       0.00055288
O        1.76926429       2.72449898       1.37436458      -0.00013116       0.00375706      -0.01048754
Li       0.00915287       3.02064589       4.67685124       0.00111580      -0.00048137       0.00141681
Li       0.01283524       0.00265169       4.66984716       0.00109306       0.01080765      -0.00143185
Li       5.15901163       0.01119693       7.04682298       0.00254509       0.00164211      -0.00027536
Li       5.15915728       3.00397486       7.04591290      -0.00097572       0.00335465       0.00020875
Fe       7.45429282       4.52265164       4.85096488      -0.00053440       0.00300179       0.00488933
Fe       2.27119928       4.50289771       6.91719460      -0.00467363      -0.00676260      -0.00245474
Fe       8.05567148       1.53700538       7.12385490       0.01343297       0.00680273       0.01855247
Fe       2.86614884       1.51684728       9.27509726       0.00158139       0.00820108      -0.00365478
P        9.39861122       4.47826205       7.44664691       0.00555949       0.01237571       0.00403040
P        4.22307327       4.51015433       8.98778541      -0.00500106       0.00189398       0.00313027
P        6.10264208       1.50391261       5.08580359      -0.00432057       0.00388835      -0.00678942
P        1.00284015       1.50602970       6.59803892      -0.00936560      -0.00126471      -0.01514673
O        9.34859616       4.49062801       5.90414003       0.00278600       0.01073322      -0.00459590
O        4.18010335       4.52190067       5.82536637      -0.00538247      -0.00076464      -0.00105019
O        6.15185436       1.50762425       8.24865845      -0.00023079       0.00411323      -0.00940856
O        1.08616821       1.48716364       8.11328127      -0.01894929      -0.01387485       0.01511027
O        5.66070048       4.51690019       8.40393077       0.00408569       0.00103446      -0.00237290
O        0.50565486       4.54882851       7.97661552      -0.00534065      -0.00150315      -0.00365463
O        9.88321530       1.50413561       6.04824099      -0.00654117       0.00208678      -0.00398314
O        4.66976321       1.49529890       5.67253829       0.00401926       0.00161119       0.00206961
O        8.61492345       3.26475939       8.03801621      -0.01652231       0.01713404      -0.00618453
O        8.64684186       5.72049351       8.07231474       0.00746564       0.01034583       0.00180198
O        3.48587919       5.74238614       8.35144634       0.00300098       0.00240120       0.00131214
O        6.82569535       2.74350474       5.71436729       0.00204120       0.00475174       0.00069110
O        1.71645500       0.26752426       5.93946942      -0.00509668       0.00631610       0.00081344
O        6.84789851       0.28178370       5.73024474       0.00761301       0.00196080      -0.00123413
O        3.49669653       3.27994736       8.34460730       0.00022439       0.00186990      -0.00196772
O        1.72139987       2.74274687       5.95380540      -0.00726337      -0.00717508       0.01261027
Li       0.02095052       9.09830406       0.03506092      -0.00140423      -0.00402984      -0.00026209
Li       0.02089385       5.90555750       0.03834663       0.00049746      -0.00114534       0.00231600
Li       5.17142787       6.00522250       2.34148724       0.00057727      -0.00247641       0.00164589
Li       5.16401224       9.01321484       2.34210993      -0.00117999       0.00159340       0.00325956
Fe       7.45109295      10.51937073       0.13403412      -0.00625086      -0.00107514      -0.00231768
Fe       2.25391283      10.54794981       2.19454266       0.00301722      -0.00200702      -0.00230786
Fe       8.05827948       7.50666787       2.48204438      -0.00124519       0.00022048      -0.00036191
Fe       2.88572171       7.51540026       4.55211262      -0.00334125       0.00245112       0.00397814
P        9.34929368      10.49906215       2.75476579       0.00229961       0.00499919      -0.01167871
P        4.21290495      10.51242249       4.28515048      -0.00531160       0.00472752       0.00136729
P        6.12002888       7.50842378       0.40729773      -0.00108011      -0.00071767       0.00262178
P        0.94930690       7.52026244       1.94282337       0.00151779       0.00379339       0.00282921
O        9.28594650      10.46290612       1.23241809       0.00119335       0.01857299       0.00291132
O        4.18904641      10.51610248       1.13255411      -0.00143379       0.00675590      -0.00283754
O        6.15197322       7.51507127       3.57452290       0.00015706       0.00224966       0.00370024
O        0.98134167       7.51915116       3.47584928       0.00214403       0.00326226       0.00223996
O        5.65230274      10.50284253       3.70813196       0.00200176       0.00258097      -0.00302769
O        0.46109138      10.51311448       3.32277693       0.00071483       0.00217572      -0.00166956
O        9.84844458       7.52314019       1.35812356      -0.00086698       0.00811902       0.00215881
O        4.67847687       7.51447185       0.98443818       0.00127643       0.00060072       0.00738016
O        8.63724956       9.26627342       3.42726573      -0.00205579       0.00503178      -0.00664594
O        8.61241999      11.73105407       3.39236169      -0.00199310       0.00748753       0.00067853
O        3.49263750      11.74552028       3.63984829      -0.00516346      -0.00064287      -0.00423537
O        6.85062134       8.73778550       1.05048148       0.00241236       0.00015800       0.00434800
O        1.69149880       6.29035568       1.30993694      -0.00091352       0.00645756       0.00083385
O        6.84444170       6.27752493       1.04686925       0.00105455      -0.00376159       0.00406762
O        3.46927128       9.28779941       3.64605377       0.00143515       0.00047404      -0.00275333
O        1.69122202       8.75175459       1.31061671      -0.00125845       0.00528333       0.00280182
Li      -0.00192355       9.01779081       4.69965335       0.00135184       0.00164046      -0.00046150
Li      -0.00438461       6.00448966       4.71840717       0.00216025       0.00017772       0.00775699
Li       5.16915719       6.01141903       7.04600551       0.00096809      -0.00136074       0.00299456
Li       5.16588359       9.01488860       7.04607874       0.00065117       0.00291962       0.00038337
Fe       7.44235676      10.51323749       4.84357753      -0.00196942       0.00280809      -0.00132175
Fe       2.28041575      10.53805719       6.90831362      -0.00814152       0.00984818      -0.00072304
Fe       8.07447012       7.50530522       7.20016979       0.00256180      -0.00368013       0.00300142
Fe       2.88859375       7.51435945       9.25287079       0.00021417       0.00082789      -0.00041369
P        9.39679566      10.54732647       7.44203637      -0.00560800      -0.01146474       0.00682128
P        4.21988420      10.52209796       8.98493529      -0.00726421       0.00291462      -0.00064157
P        6.12042449       7.51624254       5.10617678      -0.00582735       0.00124617      -0.00190553
P        0.97127802       7.52346623       6.64422025       0.00823263       0.00490597       0.00012181
O        9.34410742      10.55021087       5.90813874       0.00284588      -0.02001024      -0.01809267
O        4.18147182      10.51408177       5.81805843      -0.00157856       0.00570107      -0.00542151
O        6.15610824       7.51619018       8.25873098      -0.00028000       0.00016107       0.00767431
O        1.01243238       7.52541577       8.17367224       0.00279711       0.00789876      -0.00111602
O        5.65960118      10.51584549       8.40157696       0.00072970       0.00141278      -0.00198922
O        0.49916264      10.50572980       7.99831679      -0.02309217       0.02405020      -0.00015588
O        9.86016609       7.52430361       6.07357292      -0.00096375       0.00209471      -0.00416866
O        4.68060637       7.51892065       5.68373511       0.00162947       0.00043609      -0.00027047
O        8.62657904       9.32985626       8.07094064       0.00395373      -0.01677998      -0.00403411
O        8.66580547      11.79729676       8.06388070      -0.02724949      -0.02015096      -0.00984845
O        3.49580086      11.75424837       8.34467342      -0.00322863       0.00211887      -0.00113023
O        6.85501740       8.74429603       5.75015202       0.00275977       0.00339457       0.00120889
O        1.70539249       6.29786353       5.99278848       0.00098331       0.00613867       0.00249049
O        6.84986456       6.28771566       5.75287436       0.00099978       0.00008398       0.00293407
O        3.48615310       9.29028446       8.34630112       0.00015527       0.00241855      -0.00102321
O        1.69848275       8.75487790       5.99422960      -0.00321546       0.00733641       0.00244416
111
Lattice="10.332 0.0 6.326525364395227e-16 1.932963424911317e-15 12.02 7.3601272628755925e-16 0.0 0.0 9.384" Properties=species:S:1:pos:R:3:forces:R:3 energy=-759.4627912057688 pbc="T T T"
Li      -0.16184830       0.40229580      -0.14708507       0.12572093      -0.20969450       0.08243028
Li       5.16893777      -0.00291108       2.33879978       0.00224105       0.00336631      -0.00115688
Li       5.16395955       3.01312640       2.33767335      -0.00002138      -0.00017866       0.00053142
Fe       7.47767796       4.48925854       0.11915865       0.00032181      -0.00022537       0.00115750
Fe       2.25881207       4.50229978       2.20339443       0.00081117       0.00148964      -0.00008267
Fe       8.06402960       1.52049653       2.48449536       0.00511720       0.00616204      -0.01428320
Fe       2.88727270       1.50766005       4.52248795      -0.00337931       0.00139153      -0.00109321
P        9.34937032       4.54713225       2.75424541       0.00251621       0.00413464      -0.00019648
P        4.21718632       4.51567818       4.29383262      -0.00574485      -0.00132265       0.00080144
P        6.11951779       1.50374120       0.39804965      -0.00511172       0.00085897       0.00226067
P        0.94998751       1.53315313       1.95135410      -0.00449376       0.00335126      -0.00816634
O        9.27400715       4.61502492       1.24278531      -0.00169823       0.00384095       0.00729708
O        4.19113227       4.51235279       1.13507785      -0.00078834      -0.00120846      -0.00213747
O        6.14865177       1.49392808       3.55637464       0.00539335       0.00123650       0.00131024
O        0.98829461       1.50780449       3.49367331      -0.01048394       0.00515902      -0.01827302
O        5.65575179       4.52761436       3.71686579       0.00138454      -0.00092998       0.00158470
O        0.46199944       4.52483734       3.32319004       0.00074519       0.00449821       0.00181438
O        9.83589546       1.51987486       1.42855874      -0.00892187      -0.01183677      -0.02611678
O        4.68261861       1.49277191       0.98280463      -0.00045457       0.00088513      -0.00540620
O        8.61564535       3.31016199       3.38922647       0.00125497      -0.00060485       0.00021590
O        8.63965313       5.77423909       3.45006568      -0.00009645       0.00271460       0.00711797
O        3.47107614       5.73805447       3.64895058       0.00153693       0.00150218      -0.00086904
O        6.84522988       2.73231325       1.04525643      -0.00237964       0.00071678      -0.00084143
O        1.67098359       0.28700100       1.31088816      -0.01723406      -0.00381210      -0.02219843
O        6.85964489       0.27191031       1.03130299      -0.00251493       0.00138943      -0.00142579
O        3.50083961       3.27910675       3.65523846      -0.00163039       0.00279941       0.00114742
O        1.77021149       2.72245660       1.37163443      -0.00254256      -0.00020021      -0.01235441
Li       0.00506228       3.01732696       4.68207917      -0.00009293      -0.00201407       0.00115843
Li       0.00979780       0.00870380       4.66964201      -0.00055694       0.01028698      -0.00354194
Li       5.16306820       0.01308550       7.04596877       0.00247486       0.00249642      -0.00105091
Li       5.16345473       3.00436289       7.04490316      -0.00009463       0.00259316      -0.00036080
Fe       7.45491107       4.51781770       4.85223184      -0.00128535       0.00073031       0.00474528
Fe       2.26770814       4.50138053       6.91743517      -0.00334677      -0.00469668      -0.00149908
Fe       8.06846196       1.53597245       7.15519850       0.01215387       0.00177816       0.01710350
Fe       2.86325021       1.52348666       9.27061526      -0.00312395       0.00716143      -0.00311758
P        9.39567665       4.48908686       7.44461789       0.00367509       0.00991608       0.00312559
P        4.22212483       4.51183154       8.98741947      -0.00247457       0.00170115       0.00167818
P        6.11145928       1.50276858       5.08864823      -0.00114750       0.00327889      -0.00345658
P        0.99370728       1.49865719       6.61017612      -0.00648148      -0.00371653      -0.00462929
O        9.35048689       4.50209221       5.90140657       0.00324914       0.00788816      -0.00071962
O        4.17729586       4.52141645       5.82657213      -0.00447982       0.00110419       0.00064750
O        6.14877224       1.50730676       8.24990073      -0.00039917       0.00243611      -0.00467604
O        1.07268909       1.46461882       8.12406182      -0.01357230      -0.01953935       0.01234372
O        5.65937707       4.51913226       8.40351338       0.00216589       0.00108989      -0.00086438
O        0.50282871       4.54663925       7.97605257      -0.00071270       0.00090847       0.00004108
O        9.87786068       1.50098660       6.05044516      -0.00602486       0.00289855      -0.00038200
O        4.67547054       1.49427354       5.67024172       0.00479229       0.00257041      -0.00207327
O        8.59162913       3.28978216       8.02940133      -0.01016589       0.01357396      -0.00181465
O        8.65641881       5.73703125       8.07382035       0.00726682       0.00909970       0.00273451
O        3.48424176       5.74417431       8.35229474       0.00177950       0.00295237       0.00135592
O        6.83389417       2.74108714       5.71966106       0.00287653       0.00373876       0.00257507
O        1.71022959       0.26476495       5.93927209      -0.00723361       0.00087072      -0.00349592
O        6.85564128       0.28062116       5.73436043       0.00430683       0.00077047       0.00096228
O        3.49559104       3.28227914       8.34310225       0.00039076       0.00268162      -0.00246523
O        1.71664695       2.73556164       5.96787574      -0.00704142      -0.00650714       0.00780311
Li       0.01488772       9.07459861       0.02437590      -0.00318014      -0.01251057      -0.00321318
Li       0.01991075       5.90457070       0.03892861       0.00026803      -0.00109730       0.00303042
Li       5.17056159       6.00344675       2.34154154      -0.00051591      -0.00137125       0.00160525
Li       5.16272295       9.01314162       2.34266516      -0.00102329       0.00194941       0.00263742
Fe       7.44471522      10.51888835       0.13335739      -0.00513344       0.00134710      -0.00157962
Fe       2.25485126      10.55101180       2.19325826       0.00264820       0.00215499      -0.00261977
Fe       8.05754384       7.50278296       2.48035613      -0.00118084       0.00026233       0.00049734
Fe       2.88633207       7.51560557       4.55283092      -0.00176610       0.00236128       0.00071776
P        9.35267030      10.50744279       2.75069583       0.00370220       0.00691673      -0.00818282
P        4.21040194      10.51448833       4.28399725      -0.00515341       0.00494031      -0.00126814
P        6.11932727       7.50827373       0.40533469      -0.00018913       0.00093524       0.00212029
P        0.95086468       7.52149964       1.94399717       0.00116940       0.00330047       0.00229889
O        9.29960301      10.48822325       1.22375745       0.00666319       0.01939843      -0.00140708
O        4.18503465      10.51818608       1.13122388      -0.00261831       0.00510209      -0.00205945
O        6.15049901       7.51517892       3.57181170       0.00016433       0.00239226       0.00209261
O        0.98278792       7.52031469       3.47690961       0.00199246       0.00339353       0.00142244
O        5.64972018      10.50607695       3.70613264       0.00043916       0.00427231      -0.00308937
O        0.46277584      10.51503705       3.32201042       0.00099079       0.00265623      -0.00107489
O        9.84951616       7.52632648       1.35969395      -0.00037549       0.00681900       0.00260655
O        4.67908275       7.51668278       0.98552328       0.00052072       0.00209472       0.00427791
O        8.63532124       9.27249086       3.40946743      -0.00231557       0.00679532      -0.00959732
O        8.61426937      11.73558549       3.39152582       0.00051354       0.00771456      -0.00015759
O        3.48717243      11.74647354       3.63686085      -0.00449735       0.00072736      -0.00258391
O        6.85316419       8.73806007       1.04651468       0.00174130       0.00101606       0.00205536
O        1.69176109       6.29163841       1.31023727      -0.00168413       0.00453924       0.00024383
O        6.84336895       6.27697489       1.04489469       0.00037183      -0.00070284       0.00246120
O        3.46881489       9.28823494       3.64569710       0.00016502       0.00207876      -0.00209003
O        1.69199786       8.75311641       1.31136236      -0.00001123       0.00460999       0.00205842
Li      -0.00165195       9.01710289       4.69503460       0.00032512       0.00258004      -0.00198495
Li      -0.00451435       6.00305292       4.71972661       0.00117908       0.00038498       0.00502709
Li       5.16774973       6.01151517       7.04494958       0.00059852      -0.00039269       0.00224937
Li       5.16380909       9.01573155       7.04434929      -0.00059545       0.00344604      -0.00093262
Fe       7.44123872      10.51770479       4.83879097      -0.00124003       0.00442658      -0.00135450
Fe       2.27655998      10.54183139       6.90773096      -0.00361029       0.00635013      -0.00058617
Fe       8.07251387       7.50203485       7.19344954       0.00199581      -0.00007409       0.00208812
Fe       2.88871371       7.51533354       9.25215614      -0.00054646       0.00148725       0.00020651
P        9.38681591      10.53918978       7.44003983      -0.00879150      -0.00499046       0.00581677
P        4.21577690      10.52423738       8.98344640      -0.00374354       0.00312817      -0.00216080
P        6.11971324       7.51665612       5.10349381      -0.00300159       0.00127733      -0.00006406
P        0.97047431       7.52644787       6.64332853       0.00325103       0.00533129      -0.00031831
O        9.34665580      10.53617086       5.90713199       0.00326748      -0.01201741      -0.01004176
O        4.17951748      10.51754861       5.81638450      -0.00058896       0.00479806      -0.00337260
O        6.15238789       7.51689218       8.25706416      -0.00074908       0.00034580       0.00382179
O        1.00888770       7.53143767       8.17330329       0.00074656       0.00859454      -0.00118747
O        5.65518587      10.51467683       8.39985737      -0.00202036       0.00115099      -0.00178055
O        0.48833984      10.53206343       8.01469713      -0.01553538       0.01971861       0.00701235
O        9.86214844       7.52446687       6.06712206      -0.00049339       0.00243425      -0.00303106
O        4.68057122       7.52106140       5.68260229       0.00145391       0.00134577       0.00009606
O        8.63591378       9.31347424       8.07227279       0.00465298      -0.01159821      -0.00072883
O        8.65068919      11.77914686       8.06785669      -0.02246787      -0.01522263      -0.00543460
O        3.49295229      11.75704153       8.34368281      -0.00238850       0.00338213      -0.00173884
O        6.85640235       8.74525635       5.74485559       0.00257151       0.00284187       0.00026057
O        1.70976301       6.30230475       5.99584705       0.00186771       0.00620770       0.00214382
O        6.84795030       6.28739413       5.74995935       0.00063187       0.00022823       0.00101780
O        3.47964346       9.29378584       8.34500230      -0.00135682       0.00307966      -0.00199143
O        1.69581839       8.76135851       5.99768497      -0.00356322       0.00812508       0.00057125
111
Lattice="10.332 0.0 6.326525364395227e-16 1.932963424911317e-15 12.02 7.3601272628755925e-16 0.0 0.0 9.384" Properties=species:S:1:pos:R:3:forces:R:3 energy=-759.5064841040306 pbc="T T T"
Li      -0.01516820       0.10856392      -0.03164407      -0.01511914      -0.00882284      -0.01479721
Li       5.16456740       0.00465478       2.34374882      -0.00004541      -0.01003275      -0.00238712
Li       5.16070213       3.00504160       2.34126413       0.00220009       0.00139544       0.00018746
Fe       7.48032258       4.48506901       0.11614228      -0.00824844       0.01034197      -0.00635266
Fe       2.25973306       4.49186453       2.20501799      -0.00943707      -0.01249441      -0.01140807
Fe       8.06644522       1.51339444       2.45763226       0.01190782       0.00324686       0.01158549
Fe       2.87433207       1.50641057       4.54315077       0.01017436      -0.00970724      -0.00483069
P        9.35546521       4.53895668       2.74553723       0.00466219      -0.01465643      -0.00275927
P        4.21333641       4.51008534       4.30084912      -0.00410245      -0.01378839      -0.00797682
P        6.10999209       1.49891390       0.39231382       0.01402861       0.01529269       0.00622354
P        0.94448688       1.51195058       1.95202198      -0.01520214       0.02629641      -0.02899585
O        9.28316430       4.61146953       1.23370218      -0.00846469      -0.01504557       0.00389991
O        4.19064164       4.50688964       1.14004949      -0.00333846       0.00167521      -0.00518724
O        6.15598837       1.49169084       3.55007003       0.00620106      -0.00021110       0.00701851
O        0.97944409       1.50285952       3.49547758       0.00518336      -0.00544221       0.00283502
O        5.65033044       4.51598725       3.71980049      -0.00270233       0.00504746      -0.00465902
O        0.46643993       4.52307848       3.31962906      -0.01488483      -0.00152714       0.00283204
O        9.83891877       1.45924139       1.41484926       0.00635060       0.04326515      -0.01034655
O        4.67410411       1.49078908       0.97756569      -0.00091219       0.00019974       0.00468408
O        8.62835415       3.29484991       3.37170560      -0.01352552       0.01025336       0.02100714
O        8.63573949       5.76054450       3.44068697      -0.00525956       0.02129466      -0.00169608
O        3.47017815       5.73250524       3.65451253      -0.00414109       0.01314100      -0.00251613
O        6.83707999       2.72808508       1.03791276       0.00858820      -0.00805560      -0.00157712
O        1.67586394       0.26250283       1.31923730       0.00221473       0.00241188      -0.00324737
O        6.84992564       0.26628420       1.02347975       0.00353665      -0.00401896       0.00521732
O        3.49019733       3.27330110       3.66816938      -0.00260115       0.00949971      -0.00497565
O        1.76538479       2.70268486       1.37547414      -0.01912203       0.01746725      -0.02472223
Li       0.00000000       3.00500000       4.69200000      -0.00000000       0.00000000      -0.00000000
Li       0.00713233       0.01570633       4.66998982      -0.00651458      -0.01382916      -0.00816741
Li       5.16676790       0.01018721       7.04359339      -0.00246543      -0.00231081      -0.00084178
Li       5.17129787       3.00495840       7.04273587      -0.00220009      -0.00139544      -0.00018746
Fe       7.45766793       4.50358943       4.84084923      -0.01017436       0.00970724       0.00483069
Fe       2.26555478       4.49660556       6.92636774      -0.01190782      -0.00324686      -0.01158549
Fe       8.07226694       1.51813547       7.17898201       0.00943707       0.01249441       0.01140807
Fe       2.85167742       1.52493099       9.26785772       0.00824844      -0.01034197       0.00635266
P        9.38751312       4.49804942       7.43197802       0.01520214      -0.02629641       0.02899585
P        4.22200791       4.51108610       8.99168618      -0.01402861      -0.01529269      -0.00622354
P        6.11866359       1.49991466       5.08315088       0.00410245       0.01378839       0.00797682
P        0.97653479       1.47104332       6.63846277      -0.00466219       0.01465643       0.00275927
O        9.35255591       4.50714048       5.88852242      -0.00518336       0.00544221      -0.00283502
O        4.17601163       4.51830916       5.83392997      -0.00620106       0.00021110      -0.00701851
O        6.14135836       1.50311036       8.24395051       0.00333846      -0.00167521       0.00518724
O        1.04883570       1.39853047       8.15029782       0.00846469       0.01504557      -0.00389991
O        5.65789589       4.51921092       8.40643431       0.00091219      -0.00019974      -0.00468408
O        0.49308123       4.55075861       7.96915074      -0.00635060      -0.04326515       0.01034655
O        9.86556007       1.48692152       6.06437094       0.01488483       0.00152714      -0.00283204
O        4.68166956       1.49401275       5.66419951       0.00270233      -0.00504746       0.00465902
O        8.56661521       3.30731514       8.00852586       0.01912203      -0.01746725       0.02472223
O        8.65613606       5.74749717       8.06476270      -0.00221473      -0.00241188       0.00324737
O        3.48207436       5.74371580       8.36052025      -0.00353665       0.00401896      -0.00521732
O        6.84180267       2.73669890       5.71583062       0.00260115      -0.00949971       0.00497565
O        1.69626051       0.24945550       5.94331303       0.00525956      -0.02129466       0.00169608
O        6.86182185       0.27749476       5.72948747       0.00414109      -0.01314100       0.00251613
O        3.49492001       3.28191492       8.34608724      -0.00858820       0.00805560       0.00157712
O        1.70364585       2.71515009       6.01229440       0.01352552      -0.01025336      -0.02100714
Li       0.00000000       9.01500000       0.00000000      -0.00000000      -0.00000000      -0.00000000
Li       0.01516820       5.90143608       0.03164407       0.01511914       0.00882284       0.01479721
Li       5.16523210       5.99981279       2.34040661       0.00246543       0.00231081       0.00084178
Li       5.16546847       9.01527286       2.34251668       0.00314385      -0.00162661      -0.00101870
Fe       7.44873318      10.51588098       0.12547163      -0.01659624       0.00048121       0.01277259
Fe       2.26944690      10.53946347       2.21172662      -0.01215664      -0.01386621      -0.00717903
Fe       8.05605319       7.49401340       2.46774437       0.00871181      -0.00074003       0.02139745
Fe       2.88326462       7.50951401       4.56106241       0.01026049       0.00491763      -0.00827567
P        9.36836456      10.50942500       2.74074948      -0.02179657       0.00580162      -0.00004557
P        4.21307751      10.51606414       4.29426256      -0.00789657       0.00574294      -0.00076437
P        6.11905735       7.50778048       0.39541280       0.00147389      -0.00295842       0.00228369
P        0.95292819       7.51755433       1.94956669       0.01009383      -0.02297688      -0.00554787
O        9.33929664      10.50596484       1.20970101      -0.02007812      -0.00210065       0.00025286
O        4.19048763      10.51590432       1.13695502      -0.00763926       0.00051593      -0.00572431
O        6.14216173       7.51373680       3.55756353       0.01379700      -0.00344306       0.00527617
O        0.97714024       7.51690048       3.48228341       0.01716524       0.00151594       0.00039561
O        5.64739832      10.51214504       3.70451272       0.01442287      -0.00876123       0.00739537
O        0.46983587      10.51485724       3.33172967       0.00002730      -0.00404868      -0.01414127
O        9.85422696       7.51750284       1.35730683      -0.00519188       0.00089283       0.01464752
O        4.68377372       7.51772006       0.98654419      -0.00779369       0.00182465      -0.00521482
O        8.63903817       9.27152480       3.37609261      -0.00311422      -0.00186831       0.01623054
O        8.61877555      11.73101226       3.38190854      -0.00105925      -0.00624189       0.00112643
O        3.48222326      11.74722418       3.65409693       0.01149029      -0.00592283      -0.01242736
O        6.86066259       8.73820814       1.02952053      -0.00542695      -0.00073897       0.00930856
O        1.69986580       6.28998659       1.31761377      -0.01375079      -0.00193597      -0.00472510
O        6.84761732       6.27668506       1.03268822      -0.00685384       0.00229213       0.01147453
O        3.47022975       9.28712960       3.66020830       0.00940221      -0.00019557      -0.00853213
O        1.69376276       8.75016043       1.32085420      -0.00434212      -0.00092963      -0.01701283
Li       0.00000000       9.01500000       4.69200000       0.00000000       0.00000000      -0.00000000
Li      -0.00713233       5.99429367       4.71401018       0.00651458       0.01382916       0.00816741
Li       5.16743260       6.00534522       7.04025118       0.00004541       0.01003275       0.00238712
Li       5.16653153       9.01472714       7.04148332      -0.00314385       0.00162661       0.00101870
Fe       7.44873538      10.52048599       4.82293759      -0.01026049      -0.00491763       0.00827567
Fe       2.27594681      10.53598660       6.91625563      -0.00871181       0.00074003      -0.02139745
Fe       8.06255310       7.49053653       7.17227338       0.01215664       0.01386621       0.00717903
Fe       2.88326682       7.51411902       9.25852837       0.01659624      -0.00048121      -0.01277259
P        9.37907181      10.51244567       7.43443331      -0.01009383       0.02297688       0.00554787
P        4.21294265      10.52221952       8.98858720      -0.00147389       0.00295842      -0.00228369
P        6.11892249       7.51393586       5.08973744       0.00789657      -0.00574294       0.00076437
P        0.96363544       7.52057500       6.64325052       0.02179657      -0.00580162       0.00004557
O        9.35485976      10.51309952       5.90171659      -0.01716524      -0.00151594      -0.00039561
O        4.18983827      10.51626320       5.82643647      -0.01379700       0.00344306      -0.00527617
O        6.14151237       7.51409568       8.24704498       0.00763926      -0.00051593       0.00572431
O        0.99270336       7.52403516       8.17429899       0.02007812       0.00210065      -0.00025286
O        5.64822628      10.51227994       8.39745581       0.00779369      -0.00182465       0.00521482
O        0.47777304      10.51249716       8.02669317       0.00519188      -0.00089283      -0.01464752
O        9.86216413       7.51514276       6.05227033      -0.00002730       0.00404868       0.01414127
O        4.68460168       7.51785496       5.67948728      -0.01442287       0.00876123      -0.00739537
O        8.63823724       9.27983957       8.06314580       0.00434212       0.00092963       0.01701283
O        8.63213420      11.74001341       8.06638623       0.01375079       0.00193597       0.00472510
O        3.48438268      11.75331494       8.35131178       0.00685384      -0.00229213      -0.01147453
O        6.86177025       8.74287040       5.72379170      -0.00940221       0.00019557       0.00853213
O        1.71322445       6.29898774       6.00209146       0.00105925       0.00624189      -0.00112643
O        6.84977674       6.28277582       5.72990307      -0.01149029       0.00592283       0.01242736
O        3.47133741       9.29179186       8.35447947       0.00542695       0.00073897      -0.00930856
O        1.69296183       8.75847520       6.00790739       0.00311422       0.00186831      -0.01623054
