111
Lattice="10.332 0.0 6.326525364395227e-16 1.932963424911317e-15 12.02 7.3601272628755925e-16 0.0 0.0 9.384" Properties=species:S:1:pos:R:3:forces:R:3 energy=-757.5357267732753 pbc="T T T"
Li      -0.01251132       2.88602669      -0.03779969      -0.00251680      -0.03864821       0.00287907
Li       5.16107634      -0.00529066       2.33974955       0.00195562      -0.00237273      -0.00172229
Li       5.16422748       3.00320794       2.34470596       0.00397367      -0.00580223      -0.00842489
Fe       7.45144027       4.50705022       0.11643987       0.01098728      -0.00321426      -0.00950599
Fe       2.27324005       4.49537136       2.22238800       0.00483079      -0.01918679      -0.01071394
Fe       8.06084312       1.48923040       2.44032480      -0.00544395      -0.00849495      -0.01369741
Fe       2.87168959       1.50439115       4.56189322      -0.00712173      -0.00728542      -0.00511518
P        9.36738127       4.51597486       2.73688841      -0.00404066      -0.00215310       0.01174688
P        4.21793831       4.50895939       4.29689693       0.00030711       0.00347865      -0.01216014
P        6.10250556       1.50520330       0.39034593      -0.00125751       0.00219252       0.00102195
P        0.94108567       1.49297161       1.96020981      -0.00444988       0.00809220      -0.00399923
O        9.33323984       4.52439965       1.20612517      -0.00657279       0.00545391       0.00221963
O        4.19306960       4.50993829       1.13786100      -0.00738082       0.00101317      -0.00913349
O        6.15292484       1.51171733       3.54574836       0.00485773      -0.00006853       0.00201118
O        0.97843442       1.51068937       3.50495630      -0.00001176      -0.01650643      -0.01858679
O        5.65215803       4.51761853       3.70695478       0.00001442       0.00158981      -0.01231328
O        0.46961171       4.51339992       3.32615804       0.00303470       0.00533590       0.00587211
O        9.83845368       1.53748464       1.41836926      -0.01530696       0.02474268       0.00194397
O        4.66893660       1.51003854       0.98214013       0.00528863      -0.00229594       0.00604724
O        8.62391872       3.29238727       3.37659030       0.00386168      -0.00267509       0.00398339
O        8.64278593       5.75394638       3.37962598      -0.00269845      -0.00224659       0.00359241
O        3.47786173       5.73862147       3.66161513      -0.00178447       0.00104934      -0.01507902
O        6.83697962       2.74124921       1.02149972      -0.00026121      -0.00034094       0.01239303
O        1.75367265       0.29854167       1.38143836       0.01971292       0.00573892       0.00215342
O        6.83315636       0.27529491       1.02841234      -0.00376394      -0.00697052       0.00568491
O        3.49336284       3.27689799       3.65404029       0.00281992      -0.00301038      -0.00826969
O        1.67577082       2.74230664       1.32784843      -0.02031180      -0.00626205      -0.02153328
Li       0.01177163       2.98889026       4.66393348       0.00513694      -0.01358220       0.00557518
Li      -0.00119935      -0.00047199       4.69228691      -0.00025238      -0.00011184      -0.00003027
Li       5.17097633       0.00427356       7.04388806      -0.00188474       0.00201103       0.00180614
Li       5.16689272       2.99282746       7.04590010       0.00028378      -0.00721448      -0.00170758
Fe       7.45299867       4.50759677       4.81061486       0.00877556      -0.00743662      -0.00087234
Fe       2.28133015       4.49526441       6.92122335       0.01645492       0.00278890       0.01385196
Fe       8.06672057       1.48212162       7.16873393      -0.00225025       0.00525157      -0.00666037
Fe       2.84048354       1.48624249       9.28716036      -0.01305638      -0.01076275      -0.00172110
P        9.38013293       4.50921572       7.43062645      -0.00243907       0.00073060       0.00011179
P        4.21789329       4.50478745       8.98875192       0.00149638       0.00144037      -0.00692508
P        6.11753969       1.50630526       5.07928566       0.00031222      -0.00081503       0.00340350
P        0.97207057       1.53313967       6.64015368      -0.00273385       0.00172326      -0.03760904
O        9.34772658       4.51359953       5.89782850      -0.00356692       0.00031679       0.00937191
O        4.19097108       4.50824500       5.82909586       0.00414021       0.00256964      -0.00943989
O        6.13218826       1.50622285       8.24116006       0.00632865       0.00179757       0.00560794
O        1.04308949       1.59829545       8.15437735       0.01437460       0.01080017       0.00323854
O        5.65249354       4.51400115       8.39626099      -0.00246177       0.00256523      -0.00916209
O        0.47894856       4.51500395       8.01922892       0.00592110       0.00048317       0.00901254
O        9.86406063       1.51636294       6.06074576       0.00478862      -0.00257481      -0.00030370
O        4.68209734       1.51326126       5.66624900       0.00217612       0.00094944       0.00049104
O        8.64089818       3.27767545       8.06216958       0.00265726       0.00068986       0.00506976
O        8.64132060       5.74129948       8.06545125      -0.00715849      -0.00193751       0.00421094
O        3.48133235       5.73803844       8.35527898       0.00284280       0.00219114      -0.01523650
O        6.85711875       2.73284587       5.72152170       0.00046910      -0.00461764       0.01554743
O        1.70461847       0.29478552       6.01058071       0.00275452       0.00464524      -0.00531447
O        6.83967846       0.26995947       5.71186152      -0.00317963      -0.00310301       0.00720451
O        3.49084016       3.27325918       8.35201706       0.00127632      -0.00705953      -0.00025116
O        1.68748894       2.76318378       5.95586018      -0.00336505      -0.00319175      -0.01870994
Li       0.01229121       9.13362723       0.03769730       0.00252904       0.03857787      -0.00306440
Li      -0.00105261       6.00952063       0.00022520      -0.00018012      -0.00014659      -0.00012912
Li       5.16551832       6.00894028       2.34187990       0.00004546       0.00007506      -0.00035552
Li       5.16619593       9.02653713       2.33846031      -0.00015045       0.00681014       0.00175649
Fe       7.49142568      10.53373679       0.09718050       0.01293314       0.01046473       0.00160046
Fe       2.26495968      10.53786791       2.21598160       0.00223550      -0.00544369       0.00711659
Fe       8.05040708       7.52471934       2.46342398      -0.01634641      -0.00283521      -0.01333527
Fe       2.87858722       7.51232489       4.57358144      -0.00900588       0.00733986       0.00107594
P        9.35983232      10.48704227       2.74351826       0.00280774      -0.00160899       0.03755302
P        4.21454763      10.51369931       4.30463900      -0.00034086       0.00074822      -0.00335751
P        6.11429805       7.51522207       0.39511626      -0.00155739      -0.00142282       0.00683034
P        0.95170268       7.51087612       1.95305814       0.00254527      -0.00075370      -0.00021963
O        9.28938943      10.42199367       1.22938842      -0.01409763      -0.01058468      -0.00337904
O        4.20018114      10.51416255       1.14286573      -0.00634909      -0.00175060      -0.00559703
O        6.14129071       7.51218838       3.55477307      -0.00421372      -0.00242831       0.00936330
O        0.98452474       7.50655514       3.48595745       0.00386178      -0.00021557      -0.00946768
O        5.65006679      10.50650355       3.71774810      -0.00217375      -0.00085693      -0.00056060
O        0.46775029      10.50327932       3.32360331      -0.00482196       0.00267203       0.00044552
O        9.85275926       7.50480281       1.36500467      -0.00593003      -0.00030399      -0.00891286
O        4.67973185       7.50572108       0.98754232       0.00240505      -0.00237793       0.00889230
O        8.64374465       9.25735021       3.42778690       0.00337026       0.00335889       0.01858189
O        8.62796200      11.72563317       3.37334012      -0.00263956      -0.00462286       0.00546804
O        3.49297158      11.75032001       3.67197446       0.00320453       0.00306435      -0.00733159
O        6.84101420       8.74675768       1.03223703      -0.00130313       0.00710638       0.00025657
O        1.69101771       6.27891469       1.31841912       0.00710199       0.00196976      -0.00419015
O        6.85131910       6.28217911       1.02851266      -0.00284388      -0.00205899       0.01525736
O        3.47463555       9.28719550       3.66275084      -0.00050890       0.00460622      -0.01550839
O        1.69048950       8.74265518       1.32151771      -0.00252893      -0.00058687      -0.00515078
Li      -0.01197185       9.03074388       4.71994804      -0.00514408       0.01349781      -0.00572055
Li      -0.00102396       6.00948744       4.69232152      -0.00017727      -0.00022291      -0.00006987
Li       5.16639119       6.00998564       7.04165435       0.00000911      -0.00049761       0.00021587
Li       5.16882264       9.01614968       7.03969904      -0.00376114       0.00537579       0.00857383
Fe       7.45993021      10.51551104       4.82235607       0.00691375       0.00711095       0.00509628
Fe       2.27105390      10.53090110       6.94425860       0.00545521       0.00824620       0.01412671
Fe       8.05856916       7.52462810       7.16217843      -0.00477307       0.01939202       0.01122394
Fe       2.88020596       7.51296216       9.26781385      -0.01119707       0.00317156       0.00962260
P        9.39077280      10.52736735       7.42348716       0.00468502      -0.00794143       0.00392710
P        4.22976425      10.51478709       8.99365003       0.00120824      -0.00226183      -0.00099985
P        6.11413815       7.51098752       5.08697310      -0.00044338      -0.00351897       0.01205796
P        0.96448017       7.50421262       6.64676934       0.00412036       0.00220037      -0.01181652
O        9.35371863      10.50960024       5.87880738       0.00005413       0.01666637       0.01846021
O        4.17933183      10.50872120       5.83821130      -0.00481944       0.00022543      -0.00205887
O        6.13940612       7.51049574       8.24600563       0.00740676      -0.00088956       0.00904947
O        0.99907298       7.49586453       8.17763994       0.00688493      -0.00527122      -0.00228955
O        5.66338691      10.50982653       8.40187230      -0.00526304       0.00238757      -0.00617198
O        0.49350677      10.48234628       7.96539500       0.01525072      -0.02471465      -0.00216684
O        9.86208647       7.50638915       6.05815135      -0.00312925      -0.00507622      -0.00565927
O        4.67996362       7.50208071       5.67689487      -0.00014926      -0.00139595       0.01210954
O        8.65579864       9.27820520       8.05576635       0.02034393       0.00641250       0.02131878
O        8.57872615      11.72191112       8.00237794      -0.01979519      -0.00577960      -0.00200687
O        3.49950579      11.74491991       8.35559227       0.00387253       0.00692435      -0.00570884
O        6.83841644       8.74303600       5.73017511      -0.00288426       0.00297696       0.00830304
O        1.68957334       6.26632150       6.00426473       0.00264107       0.00231740      -0.00351849
O        6.85472618       6.28155264       5.72212496       0.00168586      -0.00100889       0.01501732
O        3.49502459       9.27875694       8.36276444       0.00025628       0.00035028      -0.01233986
O        1.70732535       8.72806258       6.00699055      -0.00386179       0.00282773      -0.00406777
111
Lattice="10.332 0.0 6.326525364395227e-16 1.932963424911317e-15 12.02 7.3601272628755925e-16 0.0 0.0 9.384" Properties=species:S:1:pos:R:3:forces:R:3 energy=-757.4864641307091 pbc="T T T"
Li      -0.16677890       2.58506845      -0.14283158       0.10960927       0.23036354       0.07074969
Li       5.15926184      -0.01080100       2.33376932       0.00024312      -0.00179347       0.00203837
Li       5.16386425       3.00555490       2.33849876       0.00189094      -0.00264732       0.00042888
Fe       7.45572127       4.50488584       0.11877685      -0.00825141      -0.00041126      -0.00063508
Fe       2.26507099       4.48304400       2.21040404       0.00381111      -0.00381433      -0.00456762
Fe       8.05470202       1.48406251       2.45903882       0.00893610      -0.00573345      -0.01151078
Fe       2.87834264       1.49972607       4.54572567       0.00303092       0.00076705       0.00446748
P        9.35863332       4.51580684       2.74589577       0.00224153      -0.00826424      -0.00269393
P        4.21761516       4.50986891       4.29028894      -0.00102105      -0.00356391      -0.00228478
P        6.10911336       1.50187936       0.39282830      -0.00281091      -0.00182503      -0.00387900
P        0.95034441       1.48128421       1.96595457      -0.00922303      -0.00052904      -0.01880344
O        9.30648621       4.53764774       1.21906041       0.00624303      -0.01776667      -0.00573808
O        4.19358650       4.50815545       1.13429181      -0.00432640      -0.00640438      -0.00134444
O        6.14498309       1.51046235       3.54802519       0.00030579      -0.00295615      -0.00092906
O        0.98196190       1.50126253       3.50927268       0.00097288      -0.00583573      -0.02098924
O        5.65444575       4.51956162       3.70617713      -0.00216213      -0.00644512      -0.00223291
O        0.46564784       4.50961954       3.32453927       0.00271307      -0.00353114      -0.00273198
O        9.83949901       1.50265983       1.43503948      -0.00782832       0.00813095      -0.01824009
O        4.67516218       1.50956192       0.98337208      -0.00308686      -0.00140865      -0.00414559
O        8.62107268       3.28673426       3.38394697       0.00171211      -0.00676560       0.00027600
O        8.64121329       5.75175051       3.40487801       0.00030497      -0.00684799      -0.01203058
O        3.47702346       5.73754748       3.65297576       0.00234534      -0.00177619      -0.00124670
O        6.84632091       2.73566028       1.02522936      -0.00362285      -0.00059577      -0.00249312
O        1.76212838       0.28638870       1.38526523      -0.00524586       0.00520116      -0.00375249
O        6.83604187       0.27112259       1.03419507      -0.00259364      -0.00183716      -0.00240639
O        3.49728605       3.27579770       3.64572298      -0.00418818      -0.00229823      -0.00345276
O        1.68042240       2.72335218       1.32912925      -0.01330055       0.00304914      -0.01534262
Li       0.01433094       2.98852315       4.66712429      -0.00090868      -0.00967638      -0.00678208
Li       0.00477027      -0.01204464       4.68479155      -0.00139343      -0.00044185       0.00040313
Li       5.16372585       0.00415022       7.04638827       0.00092718      -0.00375467      -0.00071629
Li       5.16245177       2.98770730       7.04841298       0.00312677      -0.00127123      -0.00222393
Fe       7.45171729       4.50731390       4.82127828      -0.00475255      -0.00261652      -0.00511804
Fe       2.28656377       4.49111403       6.92144831      -0.00287340      -0.00602602      -0.00497106
Fe       8.05577166       1.46825051       7.13601335       0.01517270      -0.00280038       0.02128366
Fe       2.84516348       1.48482713       9.28903504      -0.00971725      -0.00489144       0.00170786
P        9.39271024       4.48715845       7.43408215      -0.00733555       0.00680838      -0.00345636
P        4.22321256       4.50242405       8.98576990      -0.00349663      -0.00389761      -0.00303671
P        6.10816665       1.50360804       5.08033469       0.00457435      -0.00322150      -0.00155798
P        0.98382198       1.50990611       6.61576437      -0.00756120       0.00560451       0.01458396
O        9.34500504       4.49040319       5.90104037      -0.00032427       0.01197900      -0.00557173
O        4.18751403       4.50785250       5.82287953      -0.00121099      -0.00461992      -0.00214596
O        6.13964430       1.50181920       8.24391645      -0.00391783      -0.00217754      -0.00306657
O        1.05721839       1.54963120       8.13266663      -0.01180662       0.01919989       0.00213434
O        5.65970803       4.50790899       8.39616880      -0.00211603      -0.00078471      -0.00037010
O        0.49251868       4.50656677       8.00688099      -0.01043926      -0.01775287       0.01210730
O        9.87184961       1.50183867       6.04771144      -0.00722940      -0.00285538      -0.00036682
O        4.67500420       1.51221048       5.66967128       0.00143633      -0.00206347      -0.00138044
O        8.66227561       3.24227949       8.06128113      -0.01224563       0.01212332       0.00179839
O        8.63764389       5.71006684       8.06880901       0.00229208       0.01075282       0.00130053
O        3.49170636       5.73691358       8.34949405      -0.00070624      -0.00197030      -0.00076410
O        6.85108109       2.72751642       5.72510082       0.00208915      -0.00238836      -0.00000439
O        1.71160258       0.27323481       5.98253267      -0.00574667       0.00640435       0.00298984
O        6.82989252       0.26514213       5.71182869       0.00042007      -0.00380179       0.00045677
O        3.49676632       3.26962556       8.34924534      -0.00279693      -0.00234032      -0.00246865
O        1.69902044       2.74628679       5.95013164      -0.00928212       0.00272992      -0.00466102
Li       0.01366758       9.13737942       0.04044787       0.00296252       0.00359002       0.00680698
Li       0.01080762       5.95036188       0.02474868      -0.00042143       0.01259614      -0.00172781
Li       5.16336430       6.00898516       2.34228190      -0.00090919      -0.00268118       0.00354684
Li       5.17064264       9.02601362       2.33932597       0.00022146       0.00239948       0.00262446
Fe       7.49289878      10.53307017       0.10070474      -0.00044347      -0.00316688       0.00059258
Fe       2.26668105      10.52663163       2.21724711       0.00192075      -0.00419934       0.00158600
Fe       8.04818596       7.51704847       2.46937940       0.00019572      -0.00095089       0.00305100
Fe       2.87777275       7.51026007       4.57046864       0.00032978      -0.00313356      -0.00125603
P        9.35641616      10.48012711       2.75075533       0.00126173      -0.00323148       0.00487006
P        4.22049828      10.51050373       4.30074420      -0.00197768      -0.00082563       0.00017057
P        6.11372612       7.51461855       0.40355043      -0.00055180      -0.00100390       0.00182779
P        0.94722994       7.50536425       1.94913514      -0.00074561      -0.00445632       0.00252263
O        9.28301083      10.41412677       1.23673707       0.00041513      -0.00237806       0.00350144
O        4.20146189      10.51021367       1.13953662      -0.00083563       0.00213153       0.00082144
O        6.14327302       7.50970730       3.56674302       0.00190357      -0.00197021       0.00121694
O        0.98474822       7.50356627       3.48185329       0.00168813      -0.00349546       0.00095008
O        5.65676926      10.49773997       3.71655197      -0.00322298       0.00185138       0.00155793
O        0.46596833      10.50183546       3.32563805       0.00189501      -0.00482079       0.00257681
O        9.84756864       7.49831483       1.36462249      -0.00073992      -0.00808293       0.00161867
O        4.67609084       7.50709738       0.98894322      -0.00019081      -0.00240908       0.00494175
O        8.64668930       9.24942366       3.43850549       0.00140859      -0.00333983       0.00418169
O        8.62170031      11.71716264       3.38133617       0.00150671      -0.00184784       0.00300668
O        3.50623970      11.74849430       3.66278809      -0.00330447      -0.00088222       0.00063658
O        6.83773459       8.74772452       1.04028848       0.00084650      -0.00221871       0.00310131
O        1.68800720       6.27347679       1.31422341      -0.00188881      -0.00533346       0.00197717
O        6.84555358       6.28144806       1.04124086       0.00155047      -0.00131462       0.00099322
O        3.47611369       9.28627572       3.65845505       0.00058568      -0.00257424       0.00008326
O        1.68586031       8.73795257       1.31711961      -0.00302038      -0.00350461      -0.00083716
Li      -0.01210827       9.02869269       4.72174828      -0.00038761      -0.00086220       0.00538953
Li      -0.00289617       6.00580944       4.69511352       0.00210929      -0.00274312      -0.00219494
Li       5.16745823       6.01051479       7.04513532      -0.00024019      -0.00454084      -0.00098734
Li       5.17125307       9.01488888       7.04396208       0.00142039       0.00133655       0.00244267
Fe       7.46057331      10.50714406       4.83059056      -0.00360921      -0.00222961       0.00112120
Fe       2.27709372      10.52225630       6.94243417      -0.00360423       0.00401654      -0.00333079
Fe       8.06453589       7.51645595       7.17973043       0.00021015       0.00109644      -0.00272000
Fe       2.87850785       7.51004600       9.26671347       0.00191405      -0.00166782       0.00089170
P        9.39639559      10.52928928       7.43041233      -0.00010886      -0.00966277      -0.00183812
P        4.23286242      10.51322472       8.99100783       0.00050332      -0.00094235      -0.00144241
P        6.11395742       7.50885825       5.09881472       0.00025429      -0.00143637       0.00064929
P        0.96608209       7.49993079       6.64535552       0.00005076      -0.00542202      -0.00143769
O        9.35231948      10.51377605       5.88659355       0.00429006      -0.01370638      -0.00448064
O        4.18234165      10.50727927       5.83392423      -0.00572962      -0.00172829       0.00064483
O        6.14772750       7.50747400       8.25459252      -0.00234679      -0.00009289       0.00313918
O        1.00826236       7.49249075       8.17519404       0.00082430      -0.01000461       0.00010114
O        5.66713662      10.50967332       8.40023861       0.00112762      -0.00224547       0.00155193
O        0.50097063      10.47499305       7.96703439      -0.00114239       0.00138916       0.00194724
O        9.85915284       7.49814749       6.06579643       0.00178538      -0.00287524      -0.00204602
O        4.67750633       7.50258304       5.68427547      -0.00016909      -0.00187167       0.00060638
O        8.65825949       9.28350687       8.06527201       0.00578435      -0.01237313       0.00185047
O        8.59277941      11.73104996       8.01045103      -0.00969338      -0.01619702      -0.00350895
O        3.50460424      11.74502356       8.35280741       0.00055622      -0.00293871      -0.00259918
O        6.83866335       8.74021455       5.74377427       0.00017819      -0.00176640       0.00022170
O        1.69171754       6.26509067       5.99774444      -0.00178844      -0.00791658       0.00029020
O        6.85086250       6.27896426       5.73786242       0.00137323      -0.00109926       0.00016011
O        3.49896617       9.27789537       8.35719988       0.00218087      -0.00340836       0.00231908
O        1.70030446       8.72697178       5.99957661       0.00294081      -0.00556581       0.00170326
111
Lattice="10.332 0.0 6.326525364395227e-16 1.932963424911317e-15 12.02 7.3601272628755925e-16 0.0 0.0 9.384" Properties=species:S:1:pos:R:3:forces:R:3 energy=-757.3558734789011 pbc="T T T"
Li      -0.33457819       2.25845806      -0.23795684       0.11041553       0.29139863       0.07915039
Li       5.15759869      -0.01243079       2.33098040      -0.00203749      -0.00346802      -0.00007656
Li       5.15994634       3.00882299       2.33540817      -0.00042138      -0.00206944      -0.00041517
Fe       7.46274955       4.50387699       0.12008020      -0.01200395       0.00318008      -0.00167304
Fe       2.26356960       4.48411382       2.21110609       0.00590589      -0.00038554      -0.00375418
Fe       8.05029976       1.48729828       2.47458983       0.01439804      -0.00725729      -0.01295041
Fe       2.88235922       1.49955202       4.54023583       0.00533170       0.00025740      -0.00208378
P        9.35503200       4.52300344       2.75070959       0.00010202      -0.00802418      -0.00073983
P        4.21976444       4.51167854       4.29234443      -0.00005839      -0.00270119      -0.00283285
P        6.11423614       1.50067920       0.39153365      -0.00100605      -0.00172256      -0.00670379
P        0.96341075       1.48369518       1.97771586      -0.00713327      -0.00206315      -0.02758023
O        9.29296148       4.56063303       1.22815864       0.00048266      -0.02120995      -0.00546328
O        4.19833556       4.50973255       1.13605141      -0.00409505      -0.00990886      -0.00023510
O        6.13597153       1.50932409       3.54533793      -0.00899017      -0.00215244      -0.00178276
O        0.98778082       1.49749994       3.52071637      -0.00383139      -0.00476795      -0.02750076
O        5.65705548       4.52236236       3.70952798      -0.00243359      -0.00581418      -0.00179689
O        0.46345916       4.51015850       3.32636361       0.00178369      -0.00326014      -0.00403251
O        9.84553050       1.49180462       1.46104908      -0.00937033      -0.00230403      -0.01567440
O        4.68074467       1.50875096       0.98197988      -0.00012163       0.00136211      -0.00539284
O        8.61759916       3.29058581       3.38512825      -0.00144657      -0.00653702       0.00160310
O        8.64290231       5.75708174       3.42226428       0.00162305      -0.00532506      -0.01131912
O        3.47729001       5.73746435       3.65388880       0.00419358      -0.00027387      -0.00063020
O        6.85374974       2.73253237       1.02471181       0.00237613      -0.00059215      -0.00646455
O        1.76207094       0.28343851       1.38743596      -0.00290068       0.00782517       0.00015464
O        6.84185255       0.27076745       1.03413923      -0.00236563      -0.00220400      -0.00212375
O        3.50254659       3.27637794       3.64896933      -0.00450510      -0.00109755      -0.00566613
O        1.70691022       2.71570324       1.35249370      -0.00933996      -0.00392724      -0.01502544
Li       0.01599165       2.99561280       4.66973544       0.00066982      -0.00999617      -0.00540472
Li       0.00959980      -0.01448352       4.67993368       0.00009798      -0.00380573      -0.00058992
Li       5.15748255       0.00411158       7.04718779      -0.00124723      -0.00737582      -0.00009976
Li       5.15818115       2.98893028       7.05006793       0.00238891       0.00059321      -0.00075194
Fe       7.45320053       4.51094690       4.82655023      -0.00686736       0.00028855      -0.00618266
Fe       2.28971105       4.49462476       6.92525729      -0.00564312      -0.01267359      -0.00604613
Fe       8.04029122       1.46635697       7.09867412       0.01904660      -0.01049790       0.02225555
Fe       2.84702183       1.49002037       9.29456955      -0.01185930      -0.00679728       0.00511770
P        9.40236238       4.47505299       7.43630116      -0.00474781       0.01123549      -0.00629142
P        4.22805981       4.50330456       8.98767395      -0.00449871      -0.00474953      -0.00358606
P        6.09892226       1.50215699       5.07662299       0.00432041      -0.00352476      -0.00300848
P        0.99382832       1.50089338       6.60258238      -0.01002458       0.00241574       0.02450282
O        9.34246801       4.47628871       5.90180551      -0.00385252       0.01620860      -0.00985115
O        4.18842904       4.51007192       5.82538436      -0.00373144      -0.00574037      -0.00216014
O        6.14453012       1.50043610       8.24227886      -0.00436457      -0.00306848      -0.00424084
O        1.07156591       1.52093553       8.12080981      -0.02413444       0.01726801      -0.00077402
O        5.66496145       4.50538838       8.39826388      -0.00178369      -0.00126212       0.00088510
O        0.50321731       4.52524750       7.99057309      -0.00971513      -0.02251747       0.00833978
O        9.87799320       1.49810355       6.04413446      -0.01088606      -0.00338544      -0.00459463
O        4.66927582       1.51017038       5.67100765       0.00166767      -0.00055253       0.00388272
O        8.67589927       3.22057703       8.05587197      -0.01299070       0.01432731      -0.00130407
O        8.63087324       5.69101600       8.06819843      -0.00066654       0.01022626       0.00197971
O        3.49869515       5.73870921       8.35081404       0.00171913      -0.00078648       0.00073741
O        6.84365081       2.72567546       5.72074194       0.00710434      -0.00499549      -0.00127218
O        1.71649971       0.26440320       5.96665048      -0.00579494       0.00352395       0.00402256
O        6.82319188       0.26322009       5.70692114      -0.00032863      -0.00555877      -0.00271095
O        3.50042127       3.27091036       8.35114150      -0.00422632      -0.00150320      -0.00210324
O        1.70652191       2.74197209       5.95083470      -0.00453309      -0.00271644      -0.00397551
Li       0.01366156       9.13241470       0.03881367       0.00373365       0.00456951       0.00749343
Li       0.01560997       5.92231377       0.03537054       0.00262850       0.00505620       0.00283005
Li       5.16499083       6.00822301       2.34165407      -0.00065670      -0.00312198       0.00545752
Li       5.17146965       9.02390034       2.33938201       0.00117144       0.00470472       0.00327055
Fe       7.49248072      10.53371004       0.10272514       0.00017125       0.00050150      -0.00158530
Fe       2.26686522      10.52528636       2.21658830       0.00426273      -0.01007841       0.00452695
Fe       8.04887785       7.51457601       2.47177770      -0.00074036      -0.00087049       0.00246417
Fe       2.87734710       7.51087887       4.57010582      -0.00059131      -0.00366077       0.00114212
P        9.35585262      10.48078127       2.75122267       0.00088000      -0.00403803       0.00654465
P        4.22223796      10.50958250       4.29913784       0.00079157      -0.00221222      -0.00030091
P        6.11478650       7.51481672       0.40572124       0.00004237       0.00121840       0.00402546
P        0.94592136       7.50660767       1.94855229      -0.00130879      -0.00559697       0.00463884
O        9.28330290      10.41597078       1.23714908      -0.00128839      -0.00184587       0.00316842
O        4.20288334      10.51005838       1.13919196       0.00033332       0.00543661       0.00069368
O        6.14454253       7.50978306       3.56975497       0.00226957      -0.00220344       0.00166750
O        0.98356403       7.50547536       3.48137150       0.00298822      -0.00332204       0.00187332
O        5.65852021      10.49540608       3.71488489      -0.00209495      -0.00072484       0.00268210
O        0.46498544      10.50341398       3.32640252       0.00190507      -0.00624686       0.00225648
O        9.84656047       7.50139176       1.36425614      -0.00067971      -0.01084259       0.00171686
O        4.67576869       7.50921472       0.98779288       0.00032766      -0.00099585       0.00918061
O        8.64739758       9.24979517       3.43943408       0.00376023      -0.00510887       0.00463003
O        8.61872787      11.71655219       3.38292315      -0.00055319      -0.00275475       0.00359332
O        3.51014675      11.74764554       3.65948071       0.00028303      -0.00112290      -0.00086088
O        6.83844823       8.74811005       1.04219215       0.00169897       0.00021047       0.00481234
O        1.68759787       6.27446239       1.31491281      -0.00363233      -0.00766215       0.00370235
O        6.84368504       6.28193203       1.04507482       0.00232676       0.00049377       0.00391634
O        3.47613245       9.28601971       3.65794663       0.00315066      -0.00423759       0.00060516
O        1.68582849       8.73876703       1.31655515      -0.00216290      -0.00546494       0.00005311
Li      -0.01100392       9.02701793       4.71961371       0.00074442       0.00119691       0.00893162
Li      -0.00422610       6.00396792       4.70012554       0.00328051      -0.00134322      -0.00003095
Li       5.16970606       6.01121670       7.04669509       0.00160204      -0.00500742       0.00060608
Li       5.17334730       9.01425866       7.04514357       0.00231050       0.00371100       0.00341007
Fe       7.46058457      10.50279742       4.82989815      -0.00398776      -0.00504713       0.00131072
Fe       2.28075932      10.51951121       6.94148301      -0.00545395       0.00897761      -0.00570632
Fe       8.06768806       7.51315941       7.18740107       0.00208159       0.00300681      -0.00213679
Fe       2.87848170       7.51038004       9.26706741       0.00382260      -0.00160415       0.00126432
P        9.40033153      10.54118752       7.43431165      -0.00180364      -0.01293130      -0.00477619
P        4.23394873      10.51465975       8.99084288       0.00128896      -0.00079133      -0.00322740
P        6.11462336       7.50917195       5.10183031       0.00039431      -0.00095722       0.00051974
P        0.96683772       7.50263242       6.64627441       0.00108845      -0.00478223      -0.00208379
O        9.34980855      10.52622570       5.89106243       0.00418362      -0.01900568      -0.01071796
O        4.18506746      10.50737864       5.83238960      -0.00826890       0.00006824       0.00077201
O        6.15246451       7.50784663       8.25642351      -0.00116986       0.00015640       0.00673024
O        1.01193765       7.49843350       8.17564513       0.00293297      -0.01009100       0.00027541
O        5.66880046      10.51262761       8.40033450       0.00221424      -0.00339617       0.00060781
O        0.50502010      10.47246296       7.96848882      -0.00442918       0.00406300      -0.00121693
O        9.85703677       7.49832597       6.07235202       0.00338992      -0.00224474      -0.00171829
O        4.67754901       7.50503539       5.68596825      -0.00089975      -0.00077638       0.00026978
O        8.64983246       9.30099713       8.06554788       0.00695268      -0.01757307       0.00140351
O        8.61661135      11.75693312       8.02038189      -0.01954420      -0.02407286      -0.00920435
O        3.50550216      11.74672686       8.35327392       0.00140643      -0.00342761      -0.00295067
O        6.84096056       8.73983016       5.74669005       0.00033266      -0.00252548       0.00134942
O        1.69398133       6.27097586       5.99518829      -0.00100931      -0.00878709       0.00128066
O        6.84901825       6.27938295       5.74333925       0.00155698       0.00027786       0.00152206
O        3.50137122       9.27912487       8.35599403       0.00465569      -0.00457187       0.00227833
O        1.69577090       8.73115498       5.99630714       0.00364125      -0.00413858       0.00127352
111
Lattice="10.332 0.0 6.326525364395227e-16 1.932963424911317e-15 12.02 7.3601272628755925e-16 0.0 0.0 9.384" Properties=species:S:1:pos:R:3:forces:R:3 energy=-757.2469996630484 pbc="T T T"
Li      -0.48940492       1.89322145      -0.32537254       0.04129931       0.14942708       0.03214706
Li       5.15614649      -0.01252116       2.32990184      -0.00368912      -0.00343571      -0.00378383
Li       5.15669575       3.01206333       2.33284729      -0.00348915      -0.00014946      -0.00316710
Fe       7.47285545       4.49889808       0.12025159      -0.00721532       0.00061344       0.00053854
Fe       2.26375044       4.48803155       2.21252788       0.00663680       0.00623282       0.00020510
Fe       8.04965821       1.49419960       2.48318182       0.01638857      -0.00347641      -0.01058714
Fe       2.88256976       1.50085528       4.53461365       0.00031502       0.00011394      -0.01147803
P        9.35439189       4.53086581       2.75434197      -0.00088131      -0.00311409       0.00517371
P        4.22180882       4.51344164       4.29441218       0.00248833      -0.00059208      -0.00320952
P        6.11635825       1.50091212       0.38969695       0.00026364      -0.00130414      -0.01006689
P        0.97020987       1.49339532       1.98110288      -0.00524773       0.00064743      -0.03505224
O        9.28681498       4.58291861       1.23588266      -0.00364787      -0.01030288       0.00017068
O        4.20222997       4.51151682       1.13751054      -0.00146894      -0.01046404       0.00029316
O        6.12993826       1.50718503       3.54192482      -0.01858190      -0.00121653      -0.00416900
O        0.98889150       1.49868167       3.52469725      -0.00684178      -0.00207206      -0.02910676
O        5.65922686       4.52526045       3.71212400      -0.00082687      -0.00209818       0.00033717
O        0.46306872       4.51272062       3.32962933       0.00141013      -0.00132608      -0.00061541
O        9.84903799       1.49743278       1.47360771      -0.00904418      -0.00089298      -0.01150723
O        4.68347858       1.50618334       0.97975579       0.00215461       0.00191203      -0.00894372
O        8.61552422       3.29634673       3.38542037      -0.00395305      -0.00292833       0.00330116
O        8.64535438       5.76318642       3.43574839       0.00425129      -0.00081939      -0.00134500
O        3.47743980       5.73781123       3.65524593       0.00602278       0.00212219       0.00006259
O        6.85548349       2.73108507       1.02551205       0.00600553      -0.00124095      -0.00772583
O        1.75598986       0.28527615       1.38509888      -0.00428804       0.01069166      -0.00137543
O        6.84742412       0.27192930       1.03183327       0.00027822      -0.00149199      -0.00299391
O        3.50742188       3.27707740       3.65225110      -0.00139093       0.00027060      -0.00639150
O        1.73249017       2.71546585       1.37102346       0.00094803      -0.00883400      -0.00528384
Li       0.01728727       3.00243369       4.67165523       0.00254340      -0.00664570      -0.00423257
Li       0.01365294      -0.01145177       4.67617810       0.00268918      -0.00201872      -0.00242160
Li       5.15204591       0.00517229       7.04783811      -0.00489091      -0.00788817      -0.00006765
Li       5.15337316       2.99210853       7.05035066      -0.00160006       0.00310579       0.00067629
Fe       7.45622992       4.51603087       4.83015385      -0.00537201       0.00380647      -0.00236089
Fe       2.29138022       4.49867223       6.92975671      -0.00550669      -0.01467202      -0.00691564
Fe       8.02515305       1.47734152       7.06118963       0.01207538      -0.00944496       0.00244289
Fe       2.84521982       1.49643277       9.29790581      -0.01529139      -0.00333552       0.00358370
P        9.41195466       4.45906925       7.44420121       0.00135069       0.00460792      -0.00257163
P        4.23235062       4.50486515       8.98922354      -0.00226383      -0.00405939      -0.00437300
P        6.09052449       1.50177002       5.07210008      -0.00138479      -0.00272933      -0.00641884
P        1.00166026       1.49968927       6.59506549      -0.01112790       0.00153183       0.03040702
O        9.34083442       4.46180878       5.90739430      -0.00416161       0.00889142      -0.00914852
O        4.18911455       4.51269901       5.82780559      -0.00619995      -0.00552742      -0.00169005
O        6.14868319       1.50112349       8.23992738      -0.00081616      -0.00283585      -0.00596343
O        1.08264447       1.50854520       8.11361691      -0.03083568       0.01129306      -0.00721760
O        5.66948414       4.50467692       8.40015576       0.00115686      -0.00155817       0.00149585
O        0.51433707       4.54637433       7.98092129      -0.00442839      -0.01126364       0.00193197
O        9.88241697       1.49833270       6.04317981      -0.01334549      -0.00156355      -0.01442002
O        4.66409909       1.50712599       5.67066015      -0.00270714       0.00069281       0.00530506
O        8.69659951       3.19663757       8.06148565       0.00172028       0.00033546       0.00282959
O        8.62614273       5.67314715       8.06924670      -0.00503485       0.00071738       0.00268986
O        3.50411412       5.74118694       8.35240640       0.00590382       0.00135707       0.00087290
O        6.83389706       2.72770768       5.71437194       0.00571948      -0.00547583      -0.00466501
O        1.71842197       0.26169634       5.95533057      -0.00176486       0.00129366       0.00879823
O        6.81959068       0.26445886       5.70405595      -0.00260533      -0.00450570      -0.00606381
O        3.50405235       3.27296331       8.35206282      -0.00230731       0.00031236      -0.00234332
O        1.71205344       2.74199451       5.94940589      -0.00045768      -0.00226083       0.00000886
Li       0.01525104       9.13002202       0.03885533       0.00531323       0.00610601       0.00804258
Li       0.01747251       5.90696940       0.04032211       0.00537446      -0.00351010       0.00724818
Li       5.16715679       6.00655223       2.34056760       0.00059340      -0.00350722       0.00524600
Li       5.17091357       9.02196188       2.33953654       0.00192614       0.00518963       0.00334907
Fe       7.48982701      10.53471133       0.10763338      -0.00036616       0.00433054      -0.00056813
Fe       2.26566218      10.52871622       2.21504361       0.00468514      -0.01012885       0.00336528
Fe       8.04963900       7.51322406       2.47329405      -0.00053117      -0.00104090       0.00379221
Fe       2.87688384       7.51182035       4.56997911      -0.00083893      -0.00210001       0.00346348
P        9.35554390      10.48389655       2.75272068       0.00058516      -0.00282758       0.00830385
P        4.22265965      10.50964342       4.29757143       0.00268196      -0.00250270      -0.00252283
P        6.11651170       7.51425008       0.40719096       0.00273310       0.00176590       0.00658101
P        0.94521833       7.50971374       1.94843060      -0.00174044      -0.00279469       0.00637516
O        9.28420104      10.42097622       1.23814952      -0.00197711       0.00019968       0.00325046
O        4.20354994      10.51109523       1.13884731       0.00010164       0.00856433       0.00033300
O        6.14577276       7.51101867       3.57163335       0.00354610      -0.00128472       0.00334017
O        0.98241851       7.50904040       3.48134913       0.00304996      -0.00168756       0.00285797
O        5.65928279      10.49569354       3.71385850      -0.00115336      -0.00271340       0.00217379
O        0.46424900      10.50596335       3.32841117       0.00186615      -0.00452058       0.00286925
O        9.84603899       7.50689602       1.36395795      -0.00067793      -0.00636267       0.00207579
O        4.67629423       7.51107230       0.98626558       0.00174986       0.00046281       0.01069404
O        8.64746946       9.25286853       3.44083013       0.00563033      -0.00446227       0.00522638
O        8.61692680      11.71943745       3.38380926      -0.00279906      -0.00165456       0.00348118
O        3.51118172      11.74742296       3.65658250       0.00165517      -0.00092623      -0.00388995
O        6.83994285       8.74779932       1.04402782       0.00302520       0.00184488       0.00722345
O        1.68756248       6.27766654       1.31594468      -0.00344836      -0.00463082       0.00431993
O        6.84276850       6.28138765       1.04676897       0.00328126       0.00079492       0.00757712
O        3.47633290       9.28622499       3.65736547       0.00438792      -0.00451258       0.00033942
O        1.68616092       8.74169223       1.31642380      -0.00176494      -0.00278370       0.00228840
Li      -0.00912613       9.02638765       4.71662876       0.00263138       0.00289773       0.01107483
Li      -0.00536234       6.00190394       4.70641042       0.00451289      -0.00212349       0.00508873
Li       5.17201901       6.01109652       7.04715276       0.00420408      -0.00499209       0.00281909
Li       5.17423558       9.01390821       7.04626795       0.00415170       0.00454467       0.00380662
Fe       7.46002091      10.50146950       4.82962562      -0.00377414      -0.00737800       0.00093632
Fe       2.28469091      10.52049765       6.93899550      -0.00431376       0.01125116      -0.00730374
Fe       8.07090313       7.51161980       7.19411652       0.00517743       0.00267129       0.00374686
Fe       2.87860184       7.51134163       9.26753153       0.00589590      -0.00094387       0.00147136
P        9.40646780      10.56015355       7.44126828       0.00082520      -0.00329276      -0.00182226
P        4.23467207      10.51662724       8.99055112       0.00087478       0.00123256      -0.00467360
P        6.11559535       7.51056872       5.10377183       0.00188709      -0.00077826       0.00185262
P        0.96695272       7.50727851       6.64739898       0.00135542      -0.00234313      -0.00118678
O        9.34538439      10.54599234       5.89920794       0.00139075      -0.01054047      -0.01019619
O        4.18668868      10.50854129       5.83096231      -0.00888309       0.00279303      -0.00062789
O        6.15803500       7.50970400       8.25737917       0.00417729       0.00019988       0.01012529
O        1.01372092       7.50597488       8.17641910       0.00551274      -0.00479193       0.00157751
O        5.67055337      10.51624301       8.40080700       0.00285702      -0.00169665       0.00030633
O        0.51111547      10.47141067       7.97151897      -0.00388454       0.00639372      -0.00144929
O        9.85418312       7.50308046       6.07871384       0.00273229      -0.00164418       0.00292531
O        4.67802273       7.50826197       5.68693443      -0.00076019      -0.00016090       0.00065763
O        8.63848776       9.32837804       8.06680991       0.00145905      -0.00564437       0.00212198
O        8.65484115      11.79778642       8.03911394      -0.00626430      -0.00540513      -0.00227321
O        3.50619638      11.74854917       8.35289734       0.00082552      -0.00227948      -0.00230207
O        6.84349909       8.74077815       5.74846923       0.00148583      -0.00306307       0.00429623
O        1.69403815       6.27795340       5.99324028       0.00014536      -0.00545429       0.00100548
O        6.84811558       6.28101635       5.74705300       0.00173431       0.00109146       0.00429578
O        3.50414084       9.28043690       8.35494951       0.00712074      -0.00392754       0.00079834
O        1.69224125       8.73663679       5.99401762       0.00108137      -0.00035577       0.00049701
111
Lattice="10.332 0.0 6.326525364395227e-16 1.932963424911317e-15 12.02 7.3601272628755925e-16 0.0 0.0 9.384" Properties=species:S:1:pos:R:3:forces:R:3 energy=-757.2182799492133 pbc="T T T"
Li      -0.56697483       1.50342211      -0.37211986       0.01832968      -0.00048161       0.01784958
Li       5.15497948      -0.01101046       2.33035788      -0.00482542      -0.00133428      -0.00530233
Li       5.15546156       3.01491989       2.33093865      -0.00481264       0.00131351      -0.00532482
Fe       7.48309263       4.49180048       0.11602903      -0.00291173      -0.00540829       0.00311873
Fe       2.26437319       4.49177430       2.21355077       0.00541232       0.00877482       0.00205083
Fe       8.05128506       1.50258115       2.48482375       0.01913845       0.00002900      -0.01314276
Fe       2.88100385       1.50227553       4.53138439      -0.00640477      -0.00001374      -0.01769785
P        9.35503203       4.53682829       2.75501874       0.00027409       0.00065079       0.00993017
P        4.22266825       4.51474326       4.29604194       0.00340453       0.00136732      -0.00381003
P        6.11644892       1.50249836       0.38849026      -0.00008196      -0.00001524      -0.01289825
P        0.97054231       1.50277600       1.97885758      -0.00893639      -0.00000895      -0.04414627
O        9.28503781       4.59720140       1.23930584      -0.00217644      -0.00263465       0.00447272
O        4.20409411       4.51306719       1.13841947      -0.00019213      -0.01024679       0.00033637
O        6.12753547       1.50286265       3.53979155      -0.02244279      -0.00005838      -0.00644953
O        0.98698455       1.50256407       3.52326525      -0.01474551      -0.00001629      -0.03583779
O        5.65982152       4.52813453       3.71336860      -0.00055823       0.00177668       0.00150424
O        0.46347916       4.51582967       3.33091466       0.00222867       0.00171661       0.00393751
O        9.84968979       1.50251298       1.47112564      -0.01085782       0.00004876      -0.02151841
O        4.68404133       1.50210007       0.97846049       0.00199301      -0.00006602      -0.01282038
O        8.61516631       3.30141803       3.38454630      -0.00389962      -0.00073461       0.00291573
O        8.64723043       5.76815439       3.44205478       0.00648988       0.00224103       0.00660198
O        3.47673360       5.73822219       3.65634072       0.00545952       0.00384910       0.00024418
O        6.85188218       2.73164480       1.02821963       0.00336945      -0.00050051      -0.00586961
O        1.74815609       0.28806427       1.38018127      -0.00245584       0.01074003      -0.00557298
O        6.85279327       0.27375420       1.02804395       0.00342338       0.00051486      -0.00586581
O        3.51058485       3.27736962       3.65462466       0.00044819       0.00072958      -0.00618874
O        1.74743656       2.71798020       1.38037194      -0.00236655      -0.01075173      -0.00559536
Li       0.01745214       3.00903833       4.67353547       0.00351988      -0.00385198      -0.00407381
Li       0.01621815      -0.00479147       4.67387947       0.00353587       0.00392155      -0.00403005
Li       5.14961266       0.00791966       7.04890894      -0.00581199      -0.00559422       0.00020183
Li       5.15022896       2.99592007       7.04953593      -0.00581226       0.00547148       0.00029856
Fe       7.45884246       4.52126923       4.83085468      -0.00373038       0.00600028       0.00209822
Fe       2.28956090       4.50180238       6.93483362      -0.00337566      -0.01392426      -0.00834239
Fe       8.01754981       1.50236955       7.03997481       0.01266330      -0.00002282      -0.01004746
Fe       2.84266969       1.50232384       9.29868578      -0.01956740       0.00002907      -0.00065661
P        9.41427432       4.44765462       7.44924597       0.00415260      -0.00546401       0.00213277
P        4.23478646       4.50655642       8.99014962       0.00000781      -0.00313497      -0.00499704
P        6.08588280       1.50247943       5.06930242      -0.00597577      -0.00003448      -0.00918312
P        1.00464615       1.50264323       6.59312293      -0.01369091       0.00000962       0.03277952
O        9.34071548       4.45809201       5.90950120      -0.00095689      -0.00213743      -0.00665592
O        4.18825065       4.51513071       5.82956671      -0.00827345      -0.00456207      -0.00167132
O        6.15053760       1.50283800       8.23841787       0.00212231      -0.00003052      -0.00796792
O        1.08525851       1.50252674       8.11157797      -0.03875011       0.00004952      -0.01015086
O        5.67161391       4.50593023       8.40096300       0.00296935      -0.00088877       0.00099460
O        0.51823847       4.55443747       7.97645999      -0.00183878      -0.00619167       0.00084282
O        9.88449482       1.50253006       6.04158262      -0.01430081       0.00002216      -0.02474886
O        4.66116327       1.50199243       5.66998774      -0.00694761      -0.00001997       0.00360714
O        8.69975967       3.18624042       8.06225118       0.01024157      -0.01157823       0.00676818
O        8.62725750       5.66779776       8.06969536      -0.00559726      -0.00837579       0.00375488
O        3.50612116       5.74324407       8.35372856       0.00869608       0.00296407       0.00024906
O        6.82231883       2.73473710       5.70679026      -0.00135544      -0.00095304      -0.00740438
O        1.71705911       0.26231049       5.94975236       0.00016189       0.00115678       0.00671938
O        6.82335958       0.27065554       5.70651125      -0.00144314       0.00087096      -0.00736144
O        3.50640143       3.27473170       8.35264138      -0.00029262       0.00130036      -0.00229916
O        1.71643964       2.74328365       5.94982286       0.00024840      -0.00113720       0.00668733
Li       0.01763257       9.12659031       0.04033235       0.00665487       0.00752016       0.00945010
Li       0.01665996       5.89778678       0.04053100       0.00660678      -0.00748914       0.00938649
Li       5.16910602       6.00417875       2.33942493       0.00174101      -0.00475365       0.00387738
Li       5.16962560       9.01968348       2.34004439       0.00173724       0.00464167       0.00391812
Fe       7.48337136      10.53342682       0.11609259      -0.00292745       0.00546867       0.00318533
Fe       2.26432450      10.53329847       2.21354202       0.00545670      -0.00873632       0.00202176
Fe       8.05000843       7.51237707       2.47388921      -0.00012516      -0.00002349       0.00519602
Fe       2.87662184       7.51231145       4.56989427      -0.00105863      -0.00001835       0.00454312
P        9.35511283      10.48816504       2.75490373       0.00035055      -0.00064329       0.00998744
P        4.22273566      10.51023104       4.29603982       0.00341806      -0.00136141      -0.00380991
P        6.11777249       7.51251574       0.40789267       0.00559875       0.00002315       0.00815978
P        0.94488891       7.51269484       1.94836385      -0.00211149       0.00000841       0.00728006
O        9.28524459      10.42799148       1.23917821      -0.00211614       0.00262586       0.00445922
O        4.20381878      10.51218919       1.13838985      -0.00030370       0.01027783       0.00031096
O        6.14643829       7.51284953       3.57247252       0.00468231       0.00000787       0.00453647
O        0.98167299       7.51262494       3.48138538       0.00222208      -0.00001945       0.00354843
O        5.65989527      10.49732862       3.71329869      -0.00051056      -0.00180006       0.00144292
O        0.46360783      10.50874348       3.33079329       0.00227256      -0.00170008       0.00398740
O        9.84574056       7.51257456       1.36369391      -0.00091134       0.00002335       0.00229134
O        4.67685010       7.51219921       0.98512288       0.00338402      -0.00003107       0.00965939
O        8.64693761       9.25692611       3.44173760       0.00650926      -0.00222619       0.00662698
O        8.61574894      11.72369680       3.38473869      -0.00392634       0.00075138       0.00284586
O        3.51042106      11.74737888       3.65432208       0.00041827      -0.00074661      -0.00622176
O        6.84143330       8.74599024       1.04619985       0.00448525       0.00102155       0.00958718
O        1.68718694       6.28089560       1.31640259      -0.00249037      -0.00082508       0.00429166
O        6.84210570       6.27933375       1.04608061       0.00441640      -0.00104140       0.00959355
O        3.47700162       9.28653391       3.65666231       0.00549469      -0.00386905       0.00024835
O        1.68659391       8.74481847       1.31648198      -0.00244824       0.00080500       0.00431708
Li      -0.00643004       9.02478278       4.71193231       0.00501345       0.00371473       0.00991408
Li      -0.00742074       5.99918077       4.71269751       0.00493211      -0.00396837       0.01017321
Li       5.17347586       6.01039944       7.04662118       0.00577465      -0.00549784       0.00374323
Li       5.17409299       9.01346586       7.04730131       0.00575229       0.00542374       0.00380033
Fe       7.45889061      10.50385946       4.83065397      -0.00367514      -0.00592015       0.00206947
Fe       2.28960363      10.52322795       6.93468246      -0.00337211       0.01402429      -0.00840257
Fe       8.07277478       7.51264502       7.19763912       0.00750531       0.00005425       0.01003386
Fe       2.87867081       7.51241033       9.26782397       0.00696696      -0.00004694       0.00151831
P        9.41421885      10.57747532       7.44927016       0.00411255       0.00556646       0.00215996
P        4.23477006      10.51849680       8.99009928       0.00000475       0.00315766      -0.00501275
P        6.11621886       7.51246687       5.10466202       0.00345873      -0.00000700       0.00302480
P        0.96667050       7.51275850       6.64823783       0.00036862       0.00006758       0.00029591
O        9.34047855      10.56738926       5.90947768      -0.00105818       0.00228513      -0.00662639
O        4.18842794      10.51017501       5.82956067      -0.00824835       0.00456777      -0.00172228
O        6.16198751       7.51281578       8.25766465       0.01051508       0.00005115       0.01193686
O        1.01380390       7.51279353       8.17707668       0.00632797       0.00007044       0.00310301
O        5.67165395      10.51941926       8.40110243       0.00296761       0.00090136       0.00100624
O        0.51823645      10.47015971       7.97617612      -0.00192457       0.00627873       0.00087850
O        9.85193739       7.51251835       6.08266742       0.00024016      -0.00000655       0.00807341
O        4.67837105       7.51203473       5.68734950      -0.00003783      -0.00005944       0.00104644
O        8.62691563       9.35726928       8.06936109      -0.00577946       0.00855366       0.00378549
O        8.69998349      11.83884659       8.06259800       0.01032400       0.01179623       0.00685543
O        3.50634369      11.75014044       8.35225311      -0.00037539      -0.00128001      -0.00234887
O        6.84598950       8.74234823       5.74913294       0.00277460      -0.00230816       0.00613689
O        1.69199106       6.28385766       5.99289664      -0.00173999      -0.00254792       0.00051204
O        6.84694100       6.28297790       5.74891350       0.00270862       0.00224456       0.00611133
O        3.50624079       9.28165684       8.35384483       0.00871884      -0.00297701       0.00024613
O        1.69131059       8.74183486       5.99270450      -0.00167658       0.00259590       0.00050214
111
Lattice="10.332 0.0 6.326525364395227e-16 1.932963424911317e-15 12.02 7.3601272628755925e-16 0.0 0.0 9.384" Properties=species:S:1:pos:R:3:forces:R:3 energy=-757.2475380783782 pbc="T T T"
Li      -0.48953912       1.11148399      -0.32535564       0.04114190      -0.15023676       0.03215936
Li       5.15621846      -0.00814605       2.33228241      -0.00349990       0.00011537      -0.00313770
Li       5.15662874       3.01643497       2.33049442      -0.00368109       0.00340614      -0.00376763
Fe       7.48959698       4.49046888       0.10758061      -0.00035238      -0.00431028      -0.00059468
Fe       2.26571669       4.49638646       2.21505699       0.00467777       0.01015129       0.00340151
Fe       8.04967567       1.51100643       2.48315797       0.01640374       0.00350952      -0.01058414
Fe       2.88257087       1.50370633       4.53461493       0.00034415      -0.00014897      -0.01144590
P        9.35547947       4.54114095       2.75285768       0.00055827       0.00284781       0.00830715
P        4.22260835       4.51533549       4.29758977       0.00267478       0.00250748      -0.00252826
P        6.11633295       1.50408473       0.38968392       0.00024831       0.00130386      -0.01007008
P        0.97019724       1.51222110       1.98109785      -0.00522797      -0.00066403      -0.03503755
O        9.28400988       4.60427686       1.23830494      -0.00201071      -0.00021918       0.00325113
O        4.20384406       4.51417419       1.13886856       0.00018274      -0.00850462       0.00034647
O        6.13000309       1.49851945       3.54193093      -0.01855483       0.00109910      -0.00417319
O        0.98886319       1.50647879       3.52469427      -0.00684625       0.00209984      -0.02909965
O        5.65922642       4.52977104       3.71394400      -0.00119814       0.00268310       0.00221263
O        0.46413707       4.51863205       3.32855249       0.00184775       0.00453866       0.00285754
O        9.84902146       1.50766418       1.47354377      -0.00903673       0.00097160      -0.01147538
O        4.68345859       1.49800932       0.97974550       0.00215276      -0.00199915      -0.00894412
O        8.61635262       3.30573434       3.38363725      -0.00276051       0.00166824       0.00355425
O        8.64779449       5.77226489       3.44118009       0.00563182       0.00451591       0.00519804
O        3.47608689       5.73853717       3.65704718       0.00433722       0.00449294       0.00034973
O        6.84649222       2.73346181       1.03200000       0.00021751       0.00150439      -0.00298846
O        1.73313170       0.29059090       1.37081867       0.00093970       0.00880147      -0.00522626
O        6.85639167       0.27432137       1.02530270       0.00607516       0.00127453      -0.00775344
O        3.51136084       3.27733252       3.65690451       0.00168097       0.00089661      -0.00387193
O        1.75534259       2.72078951       1.38534343      -0.00426343      -0.01070008      -0.00143074
Li       0.01486707       3.01569138       4.67583934       0.00268602       0.00208185      -0.00244339
Li       0.01604664       0.00184789       4.67201130       0.00254323       0.00667126      -0.00416530
Li       5.15277629       0.01173896       7.04972282      -0.00159136      -0.00323584       0.00056693
Li       5.15264704       2.99868670       7.04844227      -0.00490814       0.00778060       0.00001667
Fe       7.45998263       4.52365325       4.82982744      -0.00382003       0.00742740       0.00096417
Fe       2.28462733       4.50456604       6.93917343      -0.00431023      -0.01118802      -0.00722950
Fe       8.02519543       1.52754418       7.06136905       0.01207398       0.00952007       0.00253340
Fe       2.84519258       1.50825582       9.29788549      -0.01533721       0.00339752       0.00361771
P        9.40647087       4.46502303       7.44126174       0.00083438       0.00337837      -0.00182978
P        4.23470603       4.50845259       8.99059286       0.00088756      -0.00121270      -0.00467256
P        6.09056389       1.50318276       5.07212302      -0.00136445       0.00270925      -0.00641101
P        1.00165772       1.50560171       6.59508284      -0.01112662      -0.00155237       0.03042937
O        9.34558031       4.47951399       5.89925260       0.00144915       0.01067525      -0.01018898
O        4.18652168       4.51677789       5.83098116      -0.00890603      -0.00276728      -0.00058891
O        6.14865966       1.50455680       8.23991486      -0.00085216       0.00277259      -0.00597659
O        1.08262559       1.49642723       8.11363804      -0.03081711      -0.01124101      -0.00721562
O        5.67051873       4.50913746       8.40064711       0.00285085       0.00168968       0.00026235
O        0.51107315       4.55318927       7.97180255      -0.00383417      -0.00636914      -0.00143749
O        9.88240340       1.50671389       6.04322362      -0.01336904       0.00158084      -0.01436646
O        4.66411079       1.49684184       5.67062995      -0.00269595      -0.00070941       0.00528821
O        8.65444691       3.22740874       8.03871107      -0.00637714       0.00556403      -0.00232280
O        8.63883766       5.69676156       8.06720396       0.00157253       0.00579324       0.00210331
O        3.50403496       5.74449469       8.35482738       0.00706724       0.00392177       0.00082703
O        6.81852857       2.74095109       5.70433818      -0.00258134       0.00447949      -0.00608299
O        1.71267653       0.26361445       5.94931852      -0.00050695       0.00225826      -0.00000440
O        6.83496015       0.27769076       5.71413882       0.00567938       0.00543780      -0.00463997
O        3.50625613       3.27635829       8.35327360       0.00088985       0.00228254      -0.00228460
O        1.71780523       2.74390834       5.95544480      -0.00169953      -0.00132374       0.00877239
Li       0.01845972       9.11740809       0.04010529       0.00541702       0.00358025       0.00730018
Li       0.01432516       5.89426995       0.03907935       0.00530986      -0.00608525       0.00801397
Li       5.17041951       6.00188063       2.33890975       0.00193413      -0.00532038       0.00331174
Li       5.16768124       9.01730163       2.34118800       0.00059938       0.00338426       0.00528400
Fe       7.47305474      10.52629278       0.12032927      -0.00725092      -0.00060564       0.00057145
Fe       2.26369973      10.53708246       2.21251359       0.00667270      -0.00618638       0.00017773
Fe       8.04964957       7.51153080       2.47325690      -0.00053244       0.00109473       0.00376622
Fe       2.87690082       7.51280335       4.56998154      -0.00083026       0.00213405       0.00346051
P        9.35448143      10.49417154       2.75422773      -0.00083702       0.00312651       0.00515614
P        4.22187508      10.51153915       4.29439471       0.00249602       0.00059263      -0.00319219
P        6.11650742       7.51076304       0.40719272       0.00272793      -0.00173365       0.00658145
P        0.94522785       7.51570312       1.94842455      -0.00172921       0.00278703       0.00636313
O        9.28703371      10.44241141       1.23573351      -0.00362293       0.01033432       0.00015537
O        4.20195192      10.51375976       1.13747247      -0.00154873       0.01051645       0.00027643
O        6.14578652       7.51467460       3.57163240       0.00354819       0.00125000       0.00334309
O        0.98242465       7.51622897       3.48134697       0.00306214       0.00165115       0.00285378
O        5.65929468      10.50020774       3.71203318      -0.00078434       0.00209054       0.00030672
O        0.46320111      10.51187015       3.32951710       0.00144922       0.00135307      -0.00062385
O        9.84605429       7.51829114       1.36395262      -0.00066436       0.00644508       0.00207085
O        4.67629896       7.51331126       0.98628222       0.00175344      -0.00045937       0.01070793
O        8.64506417       9.26191153       3.43536429       0.00428643       0.00083853      -0.00133715
O        8.61611726      11.72879378       3.38563721      -0.00396819       0.00293458       0.00323128
O        3.50725234      11.74768050       3.65193587      -0.00140886      -0.00030346      -0.00639772
O        6.84210982       8.74390074       1.04691330       0.00331470      -0.00078697       0.00760054
O        1.68676399       6.28404343       1.31635398      -0.00179657       0.00277043       0.00225418
O        6.84061440       6.27749346       1.04389767       0.00299895      -0.00183350       0.00720764
O        3.47770255       9.28694699       3.65556335       0.00608614      -0.00214318       0.00004762
O        1.68698997       8.74806680       1.31602644      -0.00340294       0.00462347       0.00435137
Li      -0.00434081       9.02203785       4.70558654       0.00457752       0.00194281       0.00487373
Li      -0.01005807       5.99767221       4.71731346       0.00261671      -0.00302581       0.01121519
Li       5.17361162       6.00996690       7.04557555       0.00415253      -0.00461284       0.00374605
Li       5.17263624       9.01276652       7.04782534       0.00418240       0.00492036       0.00286000
Fe       7.45627205      10.50914091       4.82996037      -0.00534042      -0.00373769      -0.00239114
Fe       2.29143498      10.52636680       6.92958757      -0.00550731       0.01470856      -0.00699419
Fe       8.07088417       7.51359971       7.19408799       0.00518193      -0.00256689       0.00374499
Fe       2.87861311       7.51347495       9.26753450       0.00589934       0.00097455       0.00147468
P        9.41189025      10.56594747       7.44416775       0.00130200      -0.00460812      -0.00260130
P        4.23230840      10.52019706       8.98916599      -0.00228807       0.00406947      -0.00437488
P        6.11560929       7.51437520       5.10376640       0.00189362       0.00074832       0.00185084
P        0.96696337       7.51826438       6.64740124       0.00135894       0.00242409      -0.00118795
O        9.34063272      10.56361574       5.90734269      -0.00418054      -0.00883004      -0.00918211
O        4.18929600      10.51261379       5.82778336      -0.00617406       0.00555558      -0.00171697
O        6.15802472       7.51594931       8.25738894       0.00415751      -0.00017369       0.01012825
O        1.01373289       7.51965246       8.17641548       0.00550475       0.00488247       0.00157569
O        5.66949830      10.52067510       8.40027875       0.00115430       0.00153692       0.00153219
O        0.51431124      10.47828080       7.98069533      -0.00451165       0.01126721       0.00193381
O        9.85420077       7.52197818       6.07870901       0.00275020       0.00172678       0.00290581
O        4.67804028       7.51581369       5.68693636      -0.00074770       0.00012747       0.00067208
O        8.62577540       9.35187213       8.06890769      -0.00515170      -0.00063547       0.00271162
O        8.69680033      11.82835900       8.06177073       0.00168144      -0.00030012       0.00277382
O        3.50397606      11.75191978       8.35166438      -0.00237288      -0.00032436      -0.00236629
O        6.84719361       8.74431654       5.74725574       0.00173813      -0.00110063       0.00430617
O        1.69293995       6.28908413       5.99421433       0.00109973       0.00040779       0.00052165
O        6.84445310       6.28455523       5.74826537       0.00149168       0.00304233       0.00427018
O        3.50421092       9.28371703       8.35252677       0.00596543      -0.00139417       0.00085768
O        1.69337038       8.74777358       5.99304939       0.00016739       0.00549874       0.00098816
111
Lattice="10.332 0.0 6.326525364395227e-16 1.932963424911317e-15 12.02 7.3601272628755925e-16 0.0 0.0 9.384" Properties=species:S:1:pos:R:3:forces:R:3 energy=-757.3563714508207 pbc="T T T"
Li      -0.33467907       0.74619978      -0.23787775       0.11003741      -0.29100495       0.07909721
Li       5.15947871      -0.00491729       2.33483597      -0.00042006       0.00199394      -0.00041985
Li       5.15807590       3.01633980       2.33158124      -0.00203638       0.00340536      -0.00004809
Fe       7.49226756       4.49140643       0.10270705       0.00016031      -0.00052366      -0.00154294
Fe       2.26691941       4.49982769       2.21660318       0.00425661       0.01006710       0.00455638
Fe       8.05032519       1.51788007       2.47455369       0.01441999       0.00725696      -0.01296051
Fe       2.88235797       1.50500752       4.54022488       0.00534065      -0.00028774      -0.00204277
P        9.35579813       4.54427502       2.75138692       0.00086427       0.00406111       0.00656996
P        4.22219704       4.51539428       4.29916291       0.00078185       0.00220871      -0.00029996
P        6.11419459       1.50428472       0.39150852      -0.00102397       0.00170260      -0.00671512
P        0.96335425       1.52193500       1.97771184      -0.00712735       0.00203945      -0.02755382
O        9.28314615       4.60927802       1.23733069      -0.00130073       0.00182914       0.00318425
O        4.20317663       4.51521032       1.13920089       0.00038040      -0.00538318       0.00070279
O        6.13607554       1.49638411       3.54533986      -0.00895899       0.00210425      -0.00180626
O        0.98772419       1.50768965       3.52071507      -0.00382462       0.00482660      -0.02747458
O        5.65847933       4.53003741       3.71497865      -0.00212458       0.00068524       0.00271144
O        0.46488337       4.52119047       3.32657780       0.00189256       0.00624937       0.00227552
O        9.84547839       1.51332447       1.46095326      -0.00938526       0.00233153      -0.01561660
O        4.68070497       1.49547692       0.98194513      -0.00012422      -0.00139979      -0.00540544
O        8.61815185       3.30865520       3.38278311      -0.00052524       0.00277281       0.00365887
O        8.64774830       5.77537297       3.43980004       0.00378063       0.00516054       0.00463669
O        3.47591436       5.73875204       3.65763503       0.00310328       0.00420558       0.00060565
O        6.84094829       2.73458043       1.03429512      -0.00237908       0.00218967      -0.00212503
O        1.70753770       0.29035622       1.35234118      -0.00929734       0.00390619      -0.01490730
O        6.85459114       0.27283534       1.02450883       0.00238904       0.00059583      -0.00648167
O        3.51032329       3.27711937       3.65979511       0.00030083       0.00109438      -0.00083890
O        1.76140943       2.72262087       1.38767721      -0.00291752      -0.00782480       0.00009895
Li       0.01081020       3.01869246       4.67957982       0.00012531       0.00385211      -0.00062686
Li       0.01475965       0.00863686       4.67012578       0.00066913       0.00995293      -0.00531912
Li       5.15759513       0.01490852       7.04944370       0.00239202      -0.00073317      -0.00086532
Li       5.15807898       2.99975796       7.04778590      -0.00127199       0.00726617      -0.00002804
Fe       7.46054986       4.52231600       4.83008534      -0.00402816       0.00506236       0.00132762
Fe       2.28067962       4.50555160       6.94166926      -0.00544245      -0.00893475      -0.00563449
Fe       8.04033225       1.53852244       7.09883501       0.01900464       0.01051676       0.02221934
Fe       2.84695855       1.51468201       9.29453807      -0.01192152       0.00685487       0.00515405
P        9.40030190       4.48396185       7.43438237      -0.00179838       0.01293032      -0.00471114
P        4.23398704       4.51042393       8.99087081       0.00130079       0.00080231      -0.00322044
P        6.09897469       1.50279127       5.07664828       0.00431574       0.00351301      -0.00302250
P        0.99381854       1.50439407       6.60260100      -0.00999160      -0.00242223       0.02450127
O        9.34991856       4.49919684       5.89119415       0.00416260       0.01901050      -0.01063290
O        4.18491521       4.51793288       5.83241007      -0.00828400      -0.00004488       0.00080447
O        6.14452295       1.50522096       8.24225049      -0.00436652       0.00300026      -0.00426186
O        1.07153083       1.48402235       8.12082113      -0.02402350      -0.01716914      -0.00082016
O        5.66876960       4.51274000       8.40016612       0.00221688       0.00335312       0.00058174
O        0.50495882       4.55213943       7.96879391      -0.00439098      -0.00402620      -0.00117090
O        9.87795206       1.50691712       6.04420395      -0.01091211       0.00336560      -0.00452518
O        4.66929356       1.49382548       5.67095962       0.00166130       0.00056300       0.00384914
O        8.61620242       3.26824700       8.02011030      -0.01954506       0.02409189      -0.00910297
O        8.65016313       5.72413890       8.06600313       0.00699215       0.01760162       0.00144742
O        3.50127963       5.74582268       8.35586554       0.00462513       0.00456229       0.00228811
O        6.82216622       2.74215656       5.70722900      -0.00031009       0.00551016      -0.00270274
O        1.70714594       0.26365069       5.95073248      -0.00457281       0.00271250      -0.00406418
O        6.84468235       0.27969072       5.72049854       0.00703572       0.00495349      -0.00128649
O        3.50554411       3.27820045       8.35362163       0.00145053       0.00343480      -0.00294135
O        1.71585127       2.74120918       5.96675140      -0.00576542      -0.00351909       0.00391030
Li       0.01660327       9.10205992       0.03508474       0.00265293      -0.00496358       0.00283367
Li       0.01278943       5.89184962       0.03906623       0.00377678      -0.00454507       0.00750363
Li       5.17098442       5.99993189       2.33875676       0.00119224      -0.00482462       0.00322603
Li       5.16553813       9.01562291       2.34227357      -0.00064742       0.00300630       0.00550331
Fe       7.46291795      10.52132083       0.12009833      -0.01202001      -0.00316079      -0.00170034
Fe       2.26353209      10.54100657       2.21110051       0.00593244       0.00043322      -0.00376439
Fe       8.04890048       7.51020829       2.47170437      -0.00073210       0.00093751       0.00243444
Fe       2.87737445       7.51375434       4.57011523      -0.00057549       0.00367997       0.00113720
P        9.35511849      10.50205572       2.75058313       0.00013893       0.00802690      -0.00076679
P        4.21983396      10.51330529       4.29232294      -0.00004300       0.00269957      -0.00281694
P        6.11478029       7.51018193       0.40572432       0.00003395      -0.00119126       0.00402422
P        0.94593625       7.51882709       1.94854112      -0.00129702       0.00559854       0.00462182
O        9.29316293      10.46478119       1.22799291       0.00050570       0.02123751      -0.00548285
O        4.19805869      10.51557265       1.13601298      -0.00413822       0.00994344      -0.00025098
O        6.14457661       7.51588497       3.56975447       0.00228643       0.00215891       0.00168165
O        0.98357688       7.51979677       3.48136622       0.00299828       0.00330434       0.00186590
O        5.65711931      10.50308592       3.70943436      -0.00240236       0.00579387      -0.00182617
O        0.46358226      10.51445127       3.32624159       0.00181135       0.00328617      -0.00405656
O        9.84658945       7.52382106       1.36424361      -0.00066283       0.01089958       0.00171069
O        4.67577806       7.51515399       0.98782600       0.00033043       0.00097424       0.00920035
O        8.64261306       9.26801626       3.42183181       0.00165363       0.00532840      -0.01132190
O        8.61817701      11.73455300       3.38535445      -0.00146253       0.00653307       0.00153973
O        3.50239685      11.74839778       3.64866110      -0.00449985       0.00107608      -0.00565851
O        6.84302158       8.74333825       1.04523174       0.00234345      -0.00049518       0.00394015
O        1.68643480       6.28697526       1.31649199      -0.00219583       0.00544668       0.00002322
O        6.83913479       6.27716045       1.04205154       0.00169050      -0.00020838       0.00478458
O        3.47753659       9.28730346       3.65420334       0.00425635       0.00024376      -0.00062830
O        1.68703692       8.75128244       1.31499080      -0.00359063       0.00765435       0.00371631
Li      -0.00320657       9.02001893       4.69933191       0.00330091       0.00126995      -0.00014946
Li      -0.01188302       5.99714949       4.72020192       0.00077357      -0.00121861       0.00896739
Li       5.17271312       6.00962597       7.04445952       0.00230869      -0.00377136       0.00334830
Li       5.17034146       9.01263959       7.04735601       0.00159274       0.00493924       0.00066093
Fe       7.45324911      10.51423552       4.82638487      -0.00684780      -0.00023730      -0.00619513
Fe       2.28975598      10.53040451       6.92507841      -0.00567087       0.01265860      -0.00608842
Fe       8.06767235       7.51196867       7.18736906       0.00209240      -0.00301589      -0.00212473
Fe       2.87850615       7.51443456       9.26707256       0.00383072       0.00162993       0.00126568
P        9.40227953      10.54988340       7.43620408      -0.00475302      -0.01124914      -0.00633432
P        4.22799894      10.52176072       8.98761746      -0.00452090       0.00475149      -0.00359497
P        6.11465109       7.51577257       5.10182309       0.00040950       0.00093906       0.00052840
P        0.96686074       7.52290633       6.64627665       0.00109415       0.00482521      -0.00208885
O        9.34234326      10.54904568       5.90169489      -0.00382542      -0.01618420      -0.00990301
O        4.18859479      10.51524426       5.82535889      -0.00371592       0.00577406      -0.00217171
O        6.15244319       7.51779695       8.25643975      -0.00119438      -0.00013870       0.00673062
O        1.01195845       7.52719767       8.17563811       0.00292034       0.01017139       0.00027102
O        5.66495696      10.51994634       8.39837874      -0.00178810       0.00123736       0.00091271
O        0.50316852      10.49945005       7.99036908      -0.00972318       0.02250764       0.00833360
O        9.85707721       7.52672598       6.07233233       0.00341190       0.00228353      -0.00174068
O        4.67758120       7.51904744       5.68596942      -0.00088115       0.00073857       0.00029415
O        8.63053750       9.33391315       8.06783396      -0.00076311      -0.01016571       0.00196256
O        8.67600411      11.80429866       8.05605257      -0.01305353      -0.01434945      -0.00142693
O        3.50033529      11.75397907       8.35074394      -0.00428108       0.00147518      -0.00213481
O        6.84811714       8.74594794       5.74353339       0.00155036      -0.00027969       0.00153967
O        1.69649658       6.29457298       5.99650766       0.00367157       0.00416589       0.00130655
O        6.84191954       6.28550157       5.74650500       0.00036244       0.00250883       0.00133851
O        3.49877346       9.28619087       8.35095016       0.00175789       0.00073550       0.00075714
O        1.69332318       8.75476306       5.99500417      -0.00098468       0.00880221       0.00125697
111
Lattice="10.332 0.0 6.326525364395227e-16 1.932963424911317e-15 12.02 7.3601272628755925e-16 0.0 0.0 9.384" Properties=species:S:1:pos:R:3:forces:R:3 energy=-757.4866679418421 pbc="T T T"
Li      -0.16710965       0.41950731      -0.14276122       0.10921155      -0.22999476       0.07058875
Li       5.16339504      -0.00166299       2.33791605       0.00190081       0.00255008       0.00038115
Li       5.15974211       3.01470854       2.33436444       0.00023841       0.00170153       0.00206199
Fe       7.49268900       4.49197968       0.10071670      -0.00045750       0.00314227       0.00063162
Fe       2.26673983       4.49849011       2.21727871       0.00191763       0.00419578       0.00160526
Fe       8.05474209       1.52107043       2.45899248       0.00895242       0.00573012      -0.01152412
Fe       2.87832962       1.50482894       4.54568627       0.00300697      -0.00077378       0.00450445
P        9.35636633       4.54495626       2.75093782       0.00125059       0.00326158       0.00490051
P        4.22047159       4.51447320       4.30077028      -0.00197518       0.00081285       0.00017236
P        6.10904624       1.50303305       0.39279471      -0.00282954       0.00179161      -0.00389178
P        0.95026312       1.52432742       1.96596003      -0.00920611       0.00052510      -0.01876579
O        9.28287340       4.61114790       1.23694071       0.00040576       0.00240909       0.00352714
O        4.20174306       4.51505925       1.13953211      -0.00081940      -0.00210513       0.00082567
O        6.14509671       1.49525059       3.54801205       0.00031363       0.00294534      -0.00095600
O        0.98186613       1.50397254       3.50928557       0.00097060       0.00591030      -0.02094436
O        5.65674488       4.52767807       3.71664252      -0.00323248      -0.00187128       0.00156873
O        0.46587211       4.52278258       3.32583599       0.00188380       0.00482002       0.00259917
O        9.83942444       1.50244300       1.43495804      -0.00784016      -0.00812142      -0.01816257
O        4.67508890       1.49470932       0.98330887      -0.00309877       0.00137916      -0.00416747
O        8.62111835       3.30808362       3.38121030       0.00151771       0.00187015       0.00304519
O        8.64706525       5.77578573       3.43888703       0.00142214       0.00338657       0.00420173
O        3.47593024       5.73851176       3.65814850       0.00054856       0.00253740       0.00008448
O        6.83517877       2.73415100       1.03434411      -0.00258416       0.00179667      -0.00240004
O        1.68109548       0.28270477       1.32907670      -0.01322926      -0.00303294      -0.01521420
O        6.84705728       0.26962821       1.02503569      -0.00364928       0.00056126      -0.00250706
O        3.50640815       3.27628712       3.66308996      -0.00328258       0.00084925       0.00065479
O        1.76143855       2.71965570       1.38550783      -0.00526513      -0.00518536      -0.00376897
Li       0.00599450       3.01623813       4.68440163      -0.00133483       0.00044918       0.00036396
Li       0.01314837       0.01568788       4.66757124      -0.00089199       0.00963932      -0.00670304
Li       5.16187350       0.01613966       7.04781253       0.00313020       0.00115265      -0.00232241
Li       5.16430062       2.99973710       7.04697481       0.00088803       0.00365435      -0.00065968
Fe       7.46054491       4.51796556       4.83075766      -0.00361967       0.00224172       0.00113451
Fe       2.27700675       4.50281506       6.94260964      -0.00358603      -0.00394110      -0.00327630
Fe       8.05578100       1.53663816       7.13607814       0.01511551       0.00282924       0.02119486
Fe       2.84504126       1.51989164       9.28899714      -0.00978099       0.00492742       0.00171776
P        9.39633770       4.49582511       7.43055019      -0.00011122       0.00964981      -0.00177724
P        4.23288935       4.51186464       8.99102117       0.00050040       0.00094039      -0.00143462
P        6.10820422       1.50133598       5.08034352       0.00454888       0.00322112      -0.00158610
P        0.98381534       1.49540524       6.61577357      -0.00755569      -0.00558360       0.01456065
O        9.35234832       4.51159476       5.88679506       0.00425810       0.01371052      -0.00441360
O        4.18221135       4.51802885       5.83393997      -0.00572369       0.00173324       0.00066252
O        6.13965943       1.50379560       8.24387425      -0.00390687       0.00212531      -0.00308221
O        1.05719212       1.45536310       8.13265900      -0.01173282      -0.01908632       0.00208005
O        5.66709818       4.51567590       8.40006806       0.00111696       0.00220650       0.00153955
O        0.50089570       4.54959487       7.96735908      -0.00112751      -0.00136851       0.00198728
O        9.87178418       1.50319580       6.04781085      -0.00726380       0.00286080      -0.00034936
O        4.67501322       1.49182083       5.66960820       0.00141602       0.00206673      -0.00140744
O        8.59234266       3.29412456       8.01030378      -0.00970084       0.01619916      -0.00342596
O        8.65857878       5.74162272       8.06577627       0.00579947       0.01238013       0.00189840
O        3.49888490       5.74707527       8.35706011       0.00215934       0.00339782       0.00231636
O        6.82889517       2.74019889       5.71214398       0.00041791       0.00377098       0.00045507
O        1.69962916       0.25936184       5.95000590      -0.00931581      -0.00271915      -0.00471401
O        6.85206750       0.27782268       5.72483687       0.00203795       0.00236956      -0.00003667
O        3.50461401       3.27993060       8.35311979       0.00056738       0.00293663      -0.00258684
O        1.71092328       2.73240473       5.98257573      -0.00572480      -0.00637094       0.00296917
Li       0.01181838       9.07397664       0.02436768      -0.00039597      -0.01252653      -0.00175694
Li       0.01284850       5.88684041       0.04071879       0.00300850      -0.00359787       0.00683204
Li       5.17016121       5.99781023       2.33870962       0.00025786      -0.00251001       0.00256664
Li       5.16394653       9.01484913       2.34290322      -0.00089931       0.00256403       0.00360858
Fe       7.45584814      10.52031405       0.11876102      -0.00826546       0.00043654      -0.00064694
Fe       2.26507104      10.54205996       2.21041805       0.00383977       0.00383755      -0.00455769
Fe       8.04821857       7.50777303       2.46928539       0.00020349       0.00101083       0.00303124
Fe       2.87781795       7.51437949       4.57047645       0.00035520       0.00313029      -0.00126177
P        9.35871351      10.50927564       2.74574884       0.00226195       0.00827564      -0.00271798
P        4.21769054      10.51511913       4.29027567      -0.00099555       0.00355205      -0.00228172
P        6.11371957       7.51035311       0.40356020      -0.00055724       0.00100735       0.00183192
P        0.94724875       7.52008021       1.94911858      -0.00073687       0.00446691       0.00250770
O        9.30666473      10.48785339       1.21887965       0.00625515       0.01779589      -0.00575096
O        4.19336061      10.51716087       1.13425657      -0.00430772       0.00639403      -0.00135413
O        6.14333179       7.51593844       3.56674775       0.00192053       0.00193865       0.00123629
O        0.98476935       7.52171787       3.48184204       0.00169900       0.00350891       0.00094269
O        5.65451064      10.50585068       3.70610185      -0.00212941       0.00640255      -0.00224319
O        0.46575526      10.51502446       3.32439856       0.00272927       0.00356673      -0.00275732
O        9.84761042       7.52690268       1.36459999      -0.00072557       0.00811664       0.00161702
O        4.67610519       7.51724317       0.98899705      -0.00019165       0.00238038       0.00495479
O        8.64092634       9.27335259       3.40440102       0.00032971       0.00685773      -0.01202957
O        8.62161066      11.73839889       3.38416427       0.00169873       0.00677708       0.00021964
O        3.49717791      11.74900233       3.64543330      -0.00416837       0.00227426      -0.00344338
O        6.84487928       8.74379574       1.04141432       0.00156319       0.00129764       0.00101653
O        1.68647188       6.28779194       1.31706355      -0.00304322       0.00350000      -0.00085063
O        6.83844221       6.27752037       1.04013960       0.00082926       0.00220323       0.00308544
O        3.47724524       9.28724030       3.65328890       0.00240062       0.00173678      -0.00124426
O        1.68744356       8.75227380       1.31427953      -0.00186171       0.00533173       0.00196581
Li      -0.00188349       9.01824372       4.69436933       0.00212536       0.00270776      -0.00228543
Li      -0.01297367       5.99555487       4.72225918      -0.00037415       0.00086018       0.00541486
Li       5.17062192       6.00900846       7.04329852       0.00142849      -0.00140660       0.00237169
Li       5.16811927       9.01333042       7.04578190      -0.00023268       0.00445004      -0.00091500
Fe       7.45177621      10.51786807       4.82114515      -0.00472871       0.00264769      -0.00511184
Fe       2.28660779      10.53389806       6.92128601      -0.00288281       0.00600248      -0.00498579
Fe       8.06454265       7.50859758       7.17971831       0.00023704      -0.00110652      -0.00267943
Fe       2.87854534       7.51477029       9.26672438       0.00192133       0.00168434       0.00089496
P        9.39265991      10.53776552       7.43396290      -0.00733353      -0.00678363      -0.00348328
P        4.22316078      10.52262989       8.98571767      -0.00349590       0.00388518      -0.00304591
P        6.11400642       7.51608300       5.09881157       0.00027457       0.00143036       0.00066411
P        0.96612006       7.52558135       6.64534611       0.00005365       0.00545040      -0.00144755
O        9.34496477      10.53492052       5.90090773      -0.00028725      -0.01191954      -0.00560719
O        4.18765197      10.51745949       5.82286308      -0.00120437       0.00463896      -0.00215344
O        6.14770310       7.51815378       8.25461702      -0.00235690       0.00010142       0.00314295
O        1.00829467       7.53309242       8.17517430       0.00082126       0.01004605       0.00009060
O        5.65970815      10.51739462       8.39626330      -0.00211171       0.00076155      -0.00037807
O        0.49248879      10.51813750       8.00671032      -0.01044623       0.01774594       0.01209463
O        9.85921360       7.52690156       6.06576408       0.00180109       0.00291111      -0.00206536
O        4.67755770       7.52151168       5.68427760      -0.00015238       0.00185282       0.00063095
O        8.63733417       9.31485410       8.06842367       0.00222741      -0.01068608       0.00127742
O        8.66239295      11.78258140       8.06141051      -0.01227416      -0.01208849       0.00172176
O        3.49668813      11.75525158       8.34885567      -0.00282911       0.00230369      -0.00248175
O        6.84999538       8.74635943       5.73805822       0.00138146       0.00110241       0.00017651
O        1.70104682       6.29874722       5.99975936       0.00294736       0.00558705       0.00171768
O        6.83962911       6.28511125       5.74360941       0.00019599       0.00175754       0.00023449
O        3.49179092       9.28796658       8.34965701      -0.00067472       0.00192501      -0.00074382
O        1.69107633       8.76064186       5.99757581      -0.00175517       0.00792544       0.00027611
111
Lattice="10.332 0.0 6.326525364395227e-16 1.932963424911317e-15 12.02 7.3601272628755925e-16 0.0 0.0 9.384" Properties=species:S:1:pos:R:3:forces:R:3 energy=-757.5358058122936 pbc="T T T"
Li      -0.01330006       0.11842703      -0.03756981      -0.00263093       0.03854941       0.00279536
Li       5.16371492       0.00097451       2.34431651       0.00393191       0.00534691      -0.00851572
Li       5.16160036       3.00948283       2.34014559       0.00198116       0.00199615      -0.00167046
Fe       7.49124809       4.49125476       0.09721094       0.01296284      -0.01066669       0.00154091
Fe       2.26502917       4.48723191       2.21599468       0.00222211       0.00545881       0.00714569
Fe       8.06086864       1.51583905       2.44032535      -0.00539218       0.00839375      -0.01372949
Fe       2.87168522       1.50028220       4.56182817      -0.00708259       0.00701577      -0.00508492
P        9.35980947       4.53800385       2.74362023       0.00283644       0.00168154       0.03774543
P        4.21457044       4.51133372       4.30464346      -0.00041077      -0.00083790      -0.00336662
P        6.10241967       1.49965703       0.39031916      -0.00133085      -0.00224207       0.00099585
P        0.94099250       1.51252937       1.96023413      -0.00450564      -0.00788047      -0.00395783
O        9.28930608       4.60321432       1.22951444      -0.01409451       0.01077579      -0.00331915
O        4.20041544       4.51114419       1.14282907      -0.00627542       0.00168320      -0.00559370
O        6.15302023       1.49385607       3.54574900       0.00482549       0.00039837       0.00199608
O        0.97837126       1.49446429       3.50498656      -0.00003917       0.01666219      -0.01852028
O        5.65008611       4.51881433       3.71778015      -0.00217854       0.00117808      -0.00056950
O        0.46768039       4.52126389       3.32373290      -0.00480048      -0.00257688       0.00056285
O        9.83833211       1.46769096       1.41842069      -0.01530865      -0.02454867       0.00211258
O        4.66882546       1.49433477       0.98204831       0.00525723       0.00219903       0.00606123
O        8.62737190       3.29962177       3.37317846      -0.00264889       0.00477114       0.00548002
O        8.64418541       5.76785556       3.42807782       0.00336336      -0.00325619       0.01872160
O        3.47459576       5.73771464       3.66246855      -0.00059052      -0.00468726      -0.01565741
O        6.83235957       2.72988991       1.02856723      -0.00389899       0.00696463       0.00564084
O        1.67625859       0.26360309       1.32773683      -0.02031132       0.00638226      -0.02132180
O        6.83759520       0.26394220       1.02133574      -0.00024057       0.00034974       0.01239928
O        3.49307496       3.27459411       3.67221327       0.00325485      -0.00317346      -0.00714366
O        1.75307459       2.70734026       1.38173086       0.01960589      -0.00556317       0.00204558
Li      -0.00005947       3.00475465       4.69196253      -0.00000280      -0.00000242      -0.00008469
Li       0.01079254       0.01539423       4.66435651       0.00495101       0.01328783       0.00554070
Li       5.16629034       0.01133408       7.04551266       0.00022510       0.00679318      -0.00172933
Li       5.17153631       2.99988983       7.04430432      -0.00180703      -0.00237494       0.00184703
Fe       7.45992008       4.50962037       4.82242815       0.00695044      -0.00720706       0.00515330
Fe       2.27100618       4.49425284       6.94437252       0.00549196      -0.00842121       0.01410201
Fe       8.06674376       1.52277837       7.16870782      -0.00227569      -0.00533676      -0.00668463
Fe       2.84027882       1.51853838       9.28708285      -0.01305120       0.01043960      -0.00178893
P        9.39069587       4.49766625       7.42361277       0.00471494       0.00800060       0.00405551
P        4.22978357       4.51032634       8.99363163       0.00115290       0.00220703      -0.00099795
P        6.11757008       1.49862144       5.07930628       0.00025496       0.00078629       0.00330672
P        0.97209604       1.47220897       6.64010936      -0.00272603      -0.00160844      -0.03762646
O        9.35365330       4.51564833       5.87899711       0.00007732      -0.01653284       0.01857369
O        4.17929171       4.51660635       5.83820011      -0.00485092      -0.00024267      -0.00207794
O        6.13223021       1.49929233       8.24112264       0.00635558      -0.00158289       0.00558254
O        1.04311494       1.40674665       8.15430169       0.01438516      -0.01070261       0.00329559
O        5.66335971       4.51543830       8.40172188      -0.00526372      -0.00212445      -0.00619695
O        0.49343631       4.54222590       7.96561882       0.01526674       0.02472690      -0.00192151
O        9.86401401       1.48867767       6.06079579       0.00478359       0.00276262      -0.00025389
O        4.68210181       1.49091988       5.66620609       0.00215788      -0.00107256       0.00047563
O        8.57830939       3.30320237       8.00231951      -0.01970880       0.00578242      -0.00200114
O        8.65610942       5.74686345       8.05624708       0.02032582      -0.00630742       0.02144901
O        3.49502974       5.74629446       8.36259175       0.00025479      -0.00036180      -0.01249433
O        6.83879787       2.73532554       5.71211589      -0.00333896       0.00311108       0.00727023
O        1.68810807       0.24249350       5.95568599      -0.00330375       0.00326650      -0.01854851
O        6.85800408       0.27243992       5.72132284       0.00055470       0.00465330       0.01550823
O        3.49944443       3.28012618       8.35582157       0.00383811      -0.00695252      -0.00552038
O        1.70395242       2.71090355       6.01055324       0.00266478      -0.00459137      -0.00547455
Li      -0.00007411       9.01481327      -0.00013221       0.00003619      -0.00003323      -0.00019416
Li       0.01152882       5.89067232       0.03784877       0.00238296      -0.03875400      -0.00301917
Li       5.16568467       5.99757337       2.33801877      -0.00016161      -0.00722707       0.00173331
Li       5.16611107       9.01516043       2.34229516       0.00012161      -0.00050187      -0.00024723
Fe       7.45148453      10.51815780       0.11641031       0.01097303       0.00327535      -0.00946915
Fe       2.27324005      10.52972955       2.22240112       0.00477842       0.01921697      -0.01072212
Fe       8.05046306       7.50015700       2.46330954      -0.01635117       0.00274973      -0.01338167
Fe       2.87863583       7.51240819       4.57358048      -0.00904422      -0.00754897       0.00107534
P        9.36742708      10.50904537       2.73681048      -0.00399789       0.00227764       0.01166091
P        4.21798299      10.51606707       4.29689724       0.00034147      -0.00351684      -0.01217723
P        6.11429800       7.50969356       0.39513443      -0.00155460       0.00143398       0.00683570
P        0.95172599       7.51453574       1.95304087       0.00254623       0.00081508      -0.00026056
O        9.33331938      10.50107528       1.20602349      -0.00653289      -0.00518142       0.00214871
O        4.19290539      10.51539577       1.13784667      -0.00744834      -0.00105834      -0.00915159
O        6.14135464       7.51334316       3.55477219      -0.00418458       0.00271856       0.00938460
O        0.98455230       7.51867777       3.48594757       0.00383271       0.00029106      -0.00951101
O        5.65219544      10.50763355       3.70692610       0.00003620      -0.00120177      -0.01228790
O        0.46968467      10.51118230       3.32606473       0.00307901      -0.00512000       0.00574717
O        9.85281663       7.52032794       1.36496689      -0.00595337       0.00047823      -0.00894802
O        4.67975102       7.51859690       0.98760516       0.00240326       0.00242407       0.00893047
O        8.64245665       9.27109780       3.37920844      -0.00258921       0.00240077       0.00346210
O        8.62441070      11.73269180       3.37683716       0.00381444       0.00279372       0.00399737
O        3.49336786      11.74802444       3.65379265       0.00279261       0.00296771      -0.00844245
O        6.85062470       8.74301122       1.02871482      -0.00286808       0.00215258       0.01509605
O        1.69114459       6.28306357       1.32146501      -0.00251868       0.00068946      -0.00507277
O        6.84174788       6.27844186       1.03208170      -0.00123989      -0.00706386       0.00033776
O        3.47791388       9.28629427       3.66190865      -0.00165807      -0.00114110      -0.01497115
O        1.69041057       8.74682182       1.31846381       0.00709980      -0.00188453      -0.00434632
Li      -0.00011354       9.01479180       4.69187397       0.00000473      -0.00006428      -0.00018325
Li      -0.01277995       5.99369365       4.72023368      -0.00534403      -0.01377639      -0.00574384
Li       5.16825953       6.00804054       7.03925129      -0.00385987      -0.00579464       0.00848221
Li       5.16702834       9.01412275       7.04206667       0.00011188       0.00009683       0.00031935
Fe       7.45303855      10.51758494       4.81056820       0.00875735       0.00744063      -0.00091502
Fe       2.28137126      10.52976031       6.92113351       0.01647571      -0.00299585       0.01382053
Fe       8.05858778       7.50031447       7.16219672      -0.00481983      -0.01935743       0.01120778
Fe       2.88026129       7.51185495       9.26784383      -0.01120636      -0.00332151       0.00962247
P        9.38017009      10.51568798       7.43053830      -0.00244378      -0.00072321       0.00004505
P        4.21785292      10.52025251       8.98871958       0.00149361      -0.00145200      -0.00690933
P        6.11418902       7.51393450       5.08696069      -0.00038705       0.00351666       0.01213286
P        0.96452473       7.52120725       6.64676734       0.00412511      -0.00210115      -0.01182898
O        9.34778556      10.51169536       5.89772447      -0.00358008      -0.00013219       0.00930345
O        4.19104274      10.51706924       5.82909874       0.00413098      -0.00257648      -0.00946851
O        6.13938557       7.51504014       8.24603628       0.00738331       0.00110734       0.00908191
O        0.99911271       7.52949288       8.17762795       0.00691583       0.00542596      -0.00231540
O        5.65249657      10.51119647       8.39633109      -0.00246827      -0.00224637      -0.00914423
O        0.47899009      10.50950724       8.01912375       0.00589513      -0.00037235       0.00889941
O        9.86215039       7.51859676       6.05813863      -0.00310092       0.00535070      -0.00568872
O        4.68001485       7.52210418       5.67689122      -0.00011686       0.00136394       0.01212808
O        8.64095410       9.28367061       8.06507559      -0.00702995       0.00193392       0.00414484
O        8.64127284      11.74725879       8.06233766       0.00247890      -0.00070717       0.00507018
O        3.49082610      11.75164549       8.35166643       0.00125864       0.00703412      -0.00040750
O        6.85390780       8.74373232       5.72230454       0.00167753       0.00106994       0.01500976
O        1.70807404       6.29762428       6.00708029      -0.00377034      -0.00268209      -0.00395457
O        6.83932856       6.28225172       5.73002801      -0.00276052      -0.00290465       0.00836708
O        3.48136653       9.28685694       8.35549358       0.00285629      -0.00219330      -0.01516950
O        1.68893417       8.75936806       6.00420032       0.00260939      -0.00216027      -0.00366487
