111
Lattice="10.332 0.0 6.326525364395227e-16 1.932963424911317e-15 12.02 7.3601272628755925e-16 0.0 0.0 9.384" Properties=species:S:1:pos:R:3:forces:R:3 energy=-778.8525273138283 pbc="T T T"
Li      -0.01876397       2.86672683      -0.03948084      -0.02180675       0.00931851      -0.01068180
Li       5.16284020      -0.00501089       2.34616188       0.00023886      -0.00226137      -0.00104973
Li       5.16821446       3.00417207       2.34645642      -0.00229285       0.00793892      -0.00415821
Fe       7.43385034       4.50814963       0.11631359      -0.01006711       0.00153025      -0.00324466
Fe       2.25451454       4.49162360       2.21517931      -0.01011334       0.01791523       0.01472678
Fe       8.07822151       1.49186041       2.42728554       0.02973954      -0.00379995       0.00677283
Fe       2.90119208       1.50376841       4.56264867      -0.00683714       0.01355581       0.00714896
P        9.34047615       4.51528212       2.72175902      -0.00578594       0.00079583      -0.00329573
P        4.18426664       4.51121519       4.31142009       0.00617288      -0.00161958      -0.00037508
P        6.13071868       1.50418870       0.37252404      -0.00156809      -0.00200751       0.00223990
P        0.97342621       1.50605363       1.98884257      -0.00234942      -0.02521154      -0.00307411
O        9.32808980       4.52120638       1.18634978      -0.00895794       0.00634039      -0.01092358
O        4.18170934       4.50585733       1.15781564       0.00454149       0.00456897       0.00735199
O        6.16956718       1.50684235       3.52347312      -0.00280912       0.00058823      -0.00499669
O        0.99672143       1.51244747       3.53549088      -0.00363780       0.00299493      -0.01459173
O        5.62437150       4.51206001       3.71071926       0.00790512       0.00751044       0.00215112
O        0.45043546       4.50762549       3.31840152      -0.00559041       0.00638399      -0.00443899
O        9.86050053       1.55301430       1.44668350      -0.01506414      -0.01410110      -0.01178537
O        4.68943246       1.50520234       0.96806172       0.00134086      -0.00067395       0.00784016
O        8.58837131       3.28609167       3.36433400      -0.00587530      -0.00458823      -0.00713060
O        8.61201720       5.76187147       3.36298519      -0.00412924       0.00085304       0.00730255
O        3.44123549       5.75047456       3.67874728       0.00670615       0.00375053      -0.00380381
O        6.87003189       2.74611239       1.00732376      -0.00274759       0.00850601      -0.00488507
O        1.79371028       0.30423221       1.40352115       0.00110209      -0.01441311      -0.01409303
O        6.87005072       0.26828362       1.01416120       0.00526542      -0.00557882      -0.00558863
O        3.44846683       3.27314429       3.66791946       0.00759762      -0.00156377      -0.00325854
O        1.71507614       2.75326214       1.34312012       0.00668613      -0.00818660       0.00421312
Li       0.01632125       2.99926439       4.67791790       0.00509489       0.01071794       0.00519784
Li       0.00000000       0.00000000       4.69200000       0.00000000      -0.00000000      -0.00000000
Li       5.16915980       0.00501089       7.03783812      -0.00023886       0.00226137       0.00104973
Li       5.17119820       2.99605182       7.04090547      -0.00139990       0.00314351      -0.00347349
Fe       7.43229308       4.50209164       4.80825804      -0.00624537       0.00813885      -0.00485324
Fe       2.26268507       4.49700936       6.92361519      -0.00957601      -0.00379672      -0.00704924
Fe       8.09084164       1.48535872       7.18193248       0.01652941      -0.02175009      -0.01014411
Fe       2.85155204       1.48067591       9.29272989       0.00660890       0.01415892       0.01146551
P        9.35250971       4.51172970       7.41411663       0.00063869      -0.00636266       0.00303172
P        4.18576473       4.50094180       9.00484311       0.00739450       0.00196191      -0.00101059
P        6.15341010       1.50480798       5.06125008      -0.00131879      -0.00044030       0.00172148
P        1.01053585       1.53592885       6.65578659       0.00416575      -0.00874353       0.00825398
O        9.34428831       4.51214504       5.87726937      -0.00481619      -0.00351886      -0.00787274
O        4.18221374       4.50649653       5.84816677      -0.00105089       0.00185898       0.00687076
O        6.14350314       1.50159483       8.22029438      -0.00761224       0.00630463      -0.00608208
O        1.07926464       1.61938341       8.17513902      -0.00383916      -0.03042652       0.02699872
O        5.62741591       4.51039753       8.40562205       0.00950625       0.00426176      -0.00234875
O        0.45922505       4.51425791       8.00983201       0.00289007       0.00046680      -0.00485960
O        9.88868979       1.51530168       6.08725037       0.01111458      -0.00366942      -0.01269425
O        4.71015219       1.50967722       5.65374629      -0.00050789       0.00238718       0.00841124
O        8.60663016       3.27216554       8.04725643       0.00915985      -0.01266109       0.00538904
O        8.60603505       5.74926759       8.04820540       0.00594838       0.00076382       0.00569465
O        3.44158036       5.74078997       8.37091797       0.00678897       0.00337747      -0.00271865
O        6.89515276       2.73756033       5.70800936       0.00512559       0.00644507      -0.00619567
O        1.74015754       0.28169177       6.03356540       0.01497421       0.00753599      -0.00955686
O        6.87916640       0.26142100       5.70113494       0.00423255      -0.00335023      -0.00150124
O        3.45418383       3.26010642       8.36939525       0.00917804      -0.00032048      -0.00505920
O        1.72851508       2.76497445       5.95379167       0.00074207       0.00832920       0.03209512
Li       0.01876397       9.15327317       0.03948084       0.02180675      -0.00931851       0.01068180
Li       0.00000000       6.01000000       0.00000000      -0.00000000      -0.00000000      -0.00000000
Li       5.16495298       6.01030312       2.34203919       0.00086433       0.00118999       0.00063861
Li       5.16080180       9.02394818       2.34309453       0.00139990      -0.00314351       0.00347349
Fe       7.48044796      10.53932409       0.09127011      -0.00660890      -0.01415892      -0.01146551
Fe       2.24115836      10.53464128       2.20206752      -0.01652941       0.02175009       0.01014411
Fe       8.06931493       7.52299064       2.46038481       0.00957601       0.00379672       0.00704924
Fe       2.89970692       7.51790836       4.57574196       0.00624537      -0.00813885       0.00485324
P        9.32146415      10.48407115       2.72821341      -0.00416575       0.00874353      -0.00825398
P        4.17858990      10.51519202       4.32274992       0.00131879       0.00044030      -0.00172148
P        6.14623527       7.51905820       0.37915689      -0.00739450      -0.00196191       0.00101059
P        0.97949029       7.50827030       1.96988337      -0.00063869       0.00636266      -0.00303172
O        9.25273536      10.40061659       1.20886098       0.00383916       0.03042652      -0.02699872
O        4.18849686      10.51840517       1.16370562       0.00761224      -0.00630463       0.00608208
O        6.14978626       7.51350347       3.53583323       0.00105089      -0.00185898      -0.00687076
O        0.98771169       7.50785496       3.50673063       0.00481619       0.00351886       0.00787274
O        5.62184781      10.51032278       3.73025371       0.00050789      -0.00238718      -0.00841124
O        0.44331021      10.50469832       3.29674963      -0.01111458       0.00366942       0.01269425
O        9.87277495       7.50574209       1.37416799      -0.00289007      -0.00046680       0.00485960
O        4.70458409       7.50960247       0.97837795      -0.00950625      -0.00426176       0.00234875
O        8.60348492       9.25502555       3.43020833      -0.00074207      -0.00832920      -0.03209512
O        8.59184246      11.73830823       3.35043460      -0.01497421      -0.00753599       0.00955686
O        3.45283360      11.75857900       3.68286506      -0.00423255       0.00335023       0.00150124
O        6.87781617       8.75989358       1.01460475      -0.00917804       0.00032048       0.00505920
O        1.72596495       6.27073241       1.33579460      -0.00594838      -0.00076382      -0.00569465
O        6.89041964       6.27921003       1.01308203      -0.00678897      -0.00337747       0.00271865
O        3.43684724       9.28243967       3.67599064      -0.00512559      -0.00644507       0.00619567
O        1.72536984       8.74783446       1.33674357      -0.00915985       0.01266109      -0.00538904
Li      -0.01632125       9.02073561       4.70608210      -0.00509489      -0.01071794      -0.00519784
Li       0.00000000       6.01000000       4.69200000      -0.00000000      -0.00000000      -0.00000000
Li       5.16704702       6.00969688       7.04196081      -0.00086433      -0.00118999      -0.00063861
Li       5.16378554       9.01582793       7.03754358       0.00229285      -0.00793892       0.00415821
Fe       7.43080792      10.51623159       4.82135133       0.00683714      -0.01355581      -0.00714896
Fe       2.25377849      10.52813959       6.95671446      -0.02973954       0.00379995      -0.00677283
Fe       8.07748546       7.52837640       7.16882069       0.01011334      -0.01791523      -0.01472678
Fe       2.89814966       7.51185037       9.26768641       0.01006711      -0.00153025       0.00324466
P        9.35857379      10.51394637       7.39515743       0.00234942       0.02521154       0.00307411
P        4.20128132      10.51581130       9.01147596       0.00156809       0.00200751      -0.00223990
P        6.14773336       7.50878481       5.07257991      -0.00617288       0.00161958       0.00037508
P        0.99152385       7.50471788       6.66224098       0.00578594      -0.00079583       0.00329573
O        9.33527857      10.50755253       5.84850912       0.00363780      -0.00299493       0.01459173
O        4.16243282      10.51315765       5.86052688       0.00280912      -0.00058823       0.00499669
O        6.15029066       7.51414267       8.22618436      -0.00454149      -0.00456897      -0.00735199
O        1.00391020       7.49879362       8.19765022       0.00895794      -0.00634039       0.01092358
O        5.64256754      10.51479766       8.41593828      -0.00134086       0.00067395      -0.00784016
O        0.47149947      10.46698570       7.93731650       0.01506414       0.01410110       0.01178537
O        9.88156454       7.51237451       6.06559848       0.00559041      -0.00638399       0.00443899
O        4.70762850       7.50793999       5.67328074      -0.00790512      -0.00751044      -0.00215112
O        8.61692386       9.26673786       8.04087988      -0.00668613       0.00818660      -0.00421312
O        8.53828972      11.71576779       7.98047885      -0.00110209       0.01441311       0.01409303
O        3.46194928      11.75171638       8.36983880      -0.00526542       0.00557882       0.00558863
O        6.88353317       8.74685571       5.71608054      -0.00759762       0.00156377       0.00325854
O        1.71998280       6.25812853       6.02101481       0.00412924      -0.00085304      -0.00730255
O        6.89076451       6.26952544       5.70525272      -0.00670615      -0.00375053       0.00380381
O        3.46196811       9.27388761       8.37667624       0.00274759      -0.00850601       0.00488507
O        1.74362869       8.73390833       6.01966600       0.00587530       0.00458823       0.00713060
111
Lattice="10.332 0.0 6.326525364395227e-16 1.932963424911317e-15 12.02 7.3601272628755925e-16 0.0 0.0 9.384" Properties=species:S:1:pos:R:3:forces:R:3 energy=-778.8311591005531 pbc="T T T"
Li      -0.19837633       2.57218707      -0.14537872       0.04288010       0.12611217       0.03363401
Li       5.16185388      -0.01011762       2.34147107       0.00091472       0.00114193       0.00034710
Li       5.16552966       3.01141884       2.34070233       0.00207513      -0.00210534      -0.00048408
Fe       7.43481051       4.51115349       0.11087175      -0.00609273       0.00075525       0.00181994
Fe       2.24367174       4.48793294       2.21160340       0.00244265      -0.00351279       0.00151435
Fe       8.07895997       1.48733832       2.44854831       0.00152348      -0.00337326      -0.00938491
Fe       2.90935355       1.50470061       4.55796686      -0.00714116      -0.00043232       0.00298936
P        9.32566174       4.51804649       2.72319024       0.00038838      -0.00453188      -0.00148147
P        4.18475055       4.51378369       4.31188516      -0.00043913      -0.00068935      -0.00015302
P        6.13678027       1.50286695       0.37222635       0.00104153      -0.00042097      -0.00193767
P        0.98631276       1.48740726       1.99609608      -0.00458013       0.00148265      -0.00469395
O        9.29372593       4.54263409       1.19093372       0.00738212      -0.01066242      -0.00316412
O        4.18562676       4.50719336       1.15960451       0.00182150      -0.00003098      -0.00108727
O        6.16073901       1.50645345       3.52341984      -0.00008572      -0.00079233      -0.00115089
O        1.00153182       1.50245279       3.54196524      -0.00246958      -0.00001528       0.00000581
O        5.62674733       4.51848453       3.71590040      -0.00098932      -0.00136673      -0.00037561
O        0.44006353       4.50706374       3.30988924      -0.00079845      -0.00484528      -0.00033117
O        9.86782788       1.50978761       1.45930753      -0.00258533       0.01695980      -0.01994650
O        4.69635959       1.50474685       0.97336805       0.00190588      -0.00082345      -0.00224148
O        8.57833973       3.28385670       3.36187215       0.00165276      -0.00440368      -0.00273965
O        8.60615506       5.76244243       3.38475606      -0.00160477      -0.00715359      -0.00489114
O        3.44117699       5.75061074       3.67574131       0.00076275       0.00033956       0.00055109
O        6.87517609       2.74605961       1.00447755       0.00079983       0.00093589      -0.00340106
O        1.80430076       0.28404791       1.41013204      -0.00203186      -0.00299844      -0.00985419
O        6.87540620       0.26618248       1.01144666       0.00375877       0.00140534      -0.00256485
O        3.45380058       3.27426074       3.66644552      -0.00120501       0.00008177       0.00109976
O        1.73745425       2.72617965       1.35824766       0.00092148       0.00674782      -0.00232596
Li       0.01896174       3.00601478       4.68708991       0.00564532      -0.00614851      -0.00311638
Li       0.00457997      -0.01105079       4.69165947       0.00279790       0.00103977      -0.00304313
Li       5.16402293       0.00420320       7.04098114      -0.00146004       0.00170778      -0.00048318
Li       5.16676300       2.99650177       7.04216082       0.00138236      -0.00370867       0.00039634
Fe       7.42932247       4.50854796       4.81419561      -0.00327284      -0.00397641      -0.00048051
Fe       2.26633731       4.49550598       6.92794301       0.00215659      -0.00398517      -0.00255679
Fe       8.08281007       1.46491750       7.14772091       0.00784649      -0.00322661       0.00260147
Fe       2.86461557       1.48476781       9.30593601      -0.00717858      -0.00010224      -0.00256163
P        9.36577877       4.48964811       7.41408912      -0.00261522      -0.00300794      -0.00216738
P        4.19302284       4.50175432       9.00686568      -0.00030001      -0.00148495      -0.00005251
P        6.14902545       1.50489742       5.06051416      -0.00092889      -0.00112638      -0.00113113
P        1.02547344       1.50815624       6.64749538      -0.00675604       0.00322676       0.00031827
O        9.34032463       4.49368847       5.87562644       0.00172803      -0.00338318       0.00253803
O        4.17815968       4.50842615       5.84930853       0.00225492      -0.00035751      -0.00086955
O        6.14216754       1.50124318       8.21952470       0.00275988      -0.00121589      -0.00124331
O        1.08688654       1.55289466       8.17021444      -0.01392708       0.01797487       0.00826278
O        5.63614480       4.51033128       8.40771785      -0.00122637      -0.00119345      -0.00117440
O        0.47582292       4.51139654       7.98959422      -0.00540898      -0.00562306       0.00845109
O        9.90465087       1.49896824       6.07576506       0.00140698      -0.00317651      -0.00289231
O        4.70919771       1.51014243       5.66013256      -0.00059368       0.00073555      -0.00047162
O        8.64066563       3.23382339       8.04713745      -0.00281478       0.00227075      -0.01044925
O        8.60528677       5.71846502       8.05040311      -0.00559776      -0.00449321      -0.00389367
O        3.45288170       5.74236884       8.37055432      -0.00029990      -0.00272305      -0.00024181
O        6.89358768       2.73822646       5.70389272       0.00126255      -0.00280133      -0.00060806
O        1.75558052       0.26298610       6.00956021       0.00045609       0.00554087       0.01510516
O        6.87772739       0.25965749       5.69643031      -0.00060596       0.00057678      -0.00143082
O        3.46341072       3.26013804       8.37051888       0.00033103      -0.00160204      -0.00109141
O        1.74595872       2.74840996       5.97331675      -0.00509270      -0.00050911       0.00278163
Li       0.03073335       9.14018435       0.04074438       0.00588392       0.00740469       0.00512096
Li       0.01640377       5.95613046       0.02213585       0.00492207       0.00262217       0.00056118
Li       5.16316067       6.01039318       2.34310816      -0.00041143       0.00047850       0.00098128
Li       5.16421861       9.02124177       2.34311367       0.00113539       0.00161397       0.00055656
Fe       7.47564802      10.53194413       0.08591711       0.00136655      -0.00073323      -0.00174736
Fe       2.24112311      10.52851910       2.21325335      -0.00100334       0.00136427       0.00060318
Fe       8.06826541       7.51674334       2.46054297      -0.00087573      -0.00115111       0.00200695
Fe       2.90088395       7.51428448       4.57732477       0.00191486       0.00036263      -0.00070290
P        9.31592672      10.48324580       2.72177318      -0.00033097      -0.00391771      -0.00166954
P        4.18365070      10.51183319       4.32236341      -0.00197265       0.00131164       0.00131826
P        6.14144490       7.51741062       0.38049523      -0.00084630       0.00051503       0.00098565
P        0.97595252       7.50766218       1.97076075      -0.00164020      -0.00223983      -0.00022043
O        9.25523878      10.41434797       1.20158927       0.00011708      -0.00428236       0.00072774
O        4.19543105      10.51177384       1.16348315       0.00044517      -0.00079558       0.00133777
O        6.14887428       7.51010986       3.53861266       0.00059587      -0.00090799       0.00140019
O        0.98812000       7.50867560       3.50810697      -0.00249054      -0.00246024       0.00022106
O        5.62550573      10.50146362       3.72655362      -0.00259897      -0.00038557       0.00090112
O        0.43364005      10.50842780       3.30112955      -0.00075682      -0.00253229      -0.00110624
O        9.86905922       7.50226731       1.37705270      -0.00244780      -0.00300033       0.00152144
O        4.69846099       7.50893812       0.97805353      -0.00045415      -0.00162231       0.00079214
O        8.60440298       9.24481916       3.41416595      -0.00182964       0.00099429       0.00103957
O        8.57258881      11.72477706       3.35632021       0.00051856      -0.00167660      -0.00451897
O        3.46173227      11.75683879       3.68144573      -0.00209461       0.00042485       0.00279622
O        6.87115734       8.75926829       1.01573763      -0.00344939       0.00205713       0.00064976
O        1.72020935       6.26827852       1.33611642      -0.00030703      -0.00109310       0.00022481
O        6.88207354       6.27955057       1.02027467       0.00082613       0.00179149       0.00123965
O        3.43498784       9.28050547       3.67820302      -0.00259014       0.00116733       0.00124686
O        1.71832554       8.74839571       1.33603084      -0.00309130      -0.00080558       0.00187985
Li      -0.02018392       9.01341297       4.70207979      -0.00332755      -0.00326051       0.00080924
Li      -0.00659161       6.01104296       4.69161945       0.00053192      -0.00245771      -0.00201821
Li       5.16648822       6.01119874       7.04326674      -0.00102504      -0.00105337       0.00106909
Li       5.16640617       9.01125786       7.04126510       0.00163117      -0.00014494       0.00045827
Fe       7.43373584      10.50628545       4.81807704      -0.00188137      -0.00004161      -0.00024825
Fe       2.25261480      10.52135860       6.95384799       0.00184687      -0.00175487       0.00249120
Fe       8.08552582       7.51358896       7.17400994      -0.00192469      -0.00097910       0.00223050
Fe       2.90040556       7.51064541       9.27034487       0.00088587      -0.00150208       0.00096126
P        9.36272895      10.51761498       7.40154374      -0.00136467      -0.01090453      -0.00269160
P        4.20279044      10.51406089       9.01144461       0.00022133       0.00106387       0.00206243
P        6.14519697       7.50923063       5.07527355       0.00090428      -0.00220672       0.00154936
P        0.99711042       7.50273299       6.66613148       0.00146108      -0.00613286       0.00072624
O        9.33663574      10.50920162       5.85497647       0.00257944      -0.00582893      -0.00085288
O        4.16854713      10.51079070       5.85987539       0.00045916      -0.00176845       0.00066652
O        6.15191525       7.50891106       8.22740384      -0.00189528      -0.00089800       0.00090413
O        1.01423993       7.49634500       8.20148874       0.00209202      -0.00625220       0.00030248
O        5.64303658      10.51211395       8.41069389      -0.00048068       0.00087043       0.00143432
O        0.47612505      10.46798083       7.94304346      -0.00158510      -0.00399468       0.00004690
O        9.88436550       7.50444776       6.07438088       0.00119644      -0.00519260       0.00201425
O        4.70426836       7.50635798       5.67423946       0.00116890      -0.00258085       0.00152241
O        8.61381225       9.27115354       8.04079222       0.00111967      -0.00475546      -0.00479566
O        8.55115528      11.72512241       7.99035627      -0.00516347      -0.00952591      -0.00700268
O        3.46362395      11.75175760       8.37417415      -0.00093039       0.00026524       0.00216208
O        6.87968472       8.74782971       5.71800602      -0.00040838      -0.00104904       0.00186936
O        1.72843428       6.26115983       6.01859013      -0.00083936      -0.00540637       0.00139440
O        6.88747717       6.27179449       5.71429104       0.00139664      -0.00181612       0.00067846
O        3.46267127       9.27228753       8.37637229       0.00105444       0.00071089       0.00168910
O        1.74165321       8.73536372       6.02096365       0.00154496      -0.00493968       0.00217213
111
Lattice="10.332 0.0 6.326525364395227e-16 1.932963424911317e-15 12.02 7.3601272628755925e-16 0.0 0.0 9.384" Properties=species:S:1:pos:R:3:forces:R:3 energy=-778.7647366808511 pbc="T T T"
Li      -0.35934723       2.24345002      -0.23807355       0.04583218       0.14523107       0.05406060
Li       5.16021945      -0.01256384       2.33819312       0.00086202       0.00135565       0.00025514
Li       5.16275773       3.01465700       2.33860260       0.00163977      -0.00248752      -0.00026070
Fe       7.44441473       4.51150302       0.10727059      -0.00816038       0.00497716       0.00374662
Fe       2.24114964       4.48815349       2.21004174       0.00260774      -0.00566390       0.00173701
Fe       8.07412885       1.48965018       2.46772714       0.00052589      -0.00455953      -0.00825359
Fe       2.91403285       1.50301968       4.55135888      -0.00716533      -0.00033245       0.00465005
P        9.31947962       4.52462873       2.72658257      -0.00058868      -0.00276206      -0.00126395
P        4.18528989       4.51574405       4.31286333      -0.00089081      -0.00089995       0.00045601
P        6.14040918       1.50219666       0.37244986       0.00211590      -0.00068542      -0.00333871
P        0.99913487       1.48674499       2.00629146      -0.00233305      -0.00112170      -0.00281705
O        9.27546841       4.56471514       1.19873703       0.00588870      -0.00921136      -0.00141157
O        4.18914756       4.50873247       1.16022517       0.00282367       0.00036958      -0.00123974
O        6.15228587       1.50632954       3.52258166      -0.00229976      -0.00041886      -0.00255011
O        1.01069002       1.49970222       3.55215814      -0.00695322      -0.00103095       0.00499314
O        5.62827605       4.52268510       3.71982538      -0.00138297      -0.00216434       0.00077504
O        0.43576962       4.50677335       3.30891371      -0.00159403      -0.00576236       0.00099132
O        9.87399507       1.49145430       1.48451910      -0.00101634       0.01746767      -0.03173352
O        4.69935416       1.50527310       0.97287481       0.00296645      -0.00008367      -0.00361564
O        8.57138624       3.28896133       3.36439284       0.00230339      -0.00582976      -0.00450922
O        8.60668495       5.76842044       3.40098514      -0.00098257      -0.00736544      -0.00145271
O        3.43997568       5.75059439       3.67478164       0.00106393       0.00055002       0.00101835
O        6.87927764       2.74474106       1.00450776       0.00513806      -0.00013265      -0.00582915
O        1.80925935       0.28008808       1.41495664       0.00381931      -0.00651648      -0.01719815
O        6.87659207       0.26459189       1.01198681       0.00618511       0.00228039      -0.00409182
O        3.45863781       3.27494154       3.66657183      -0.00138555       0.00042542       0.00207472
O        1.76114831       2.71661922       1.37810400       0.00630416       0.01041159      -0.00784092
Li       0.01765916       3.00989600       4.68933512       0.00711846      -0.00861692      -0.00517958
Li       0.00864678      -0.01637639       4.69274689       0.00402847       0.00203070      -0.00418819
Li       5.15953728       0.00294673       7.04247458      -0.00311748       0.00184142      -0.00150603
Li       5.16229154       2.99765960       7.04424959       0.00041067      -0.00438788       0.00034029
Fe       7.43140434       4.51386649       4.81910889      -0.00641822      -0.00421174       0.00025648
Fe       2.26811049       4.49830113       6.93188227       0.00596379      -0.00344681      -0.00342740
Fe       8.06438135       1.46189227       7.11595578       0.00950357      -0.01105126      -0.00568125
Fe       2.86943979       1.48962468       9.31064745      -0.01192069       0.00026626      -0.00013665
P        9.37635880       4.47988295       7.41714494      -0.00026116      -0.00135079      -0.00376310
P        4.19721851       4.50338388       9.00777182       0.00000043      -0.00248011       0.00073135
P        6.14166228       1.50440870       5.05899065      -0.00418169      -0.00122584      -0.00238496
P        1.03683071       1.49837031       6.63662833      -0.01241072       0.00205571      -0.01016530
O        9.33548515       4.48339250       5.87678226       0.00280181      -0.00598047       0.00606335
O        4.17486815       4.51009399       5.85075778       0.00219503       0.00071969      -0.00050556
O        6.14478646       1.50034673       8.21923036       0.00547007      -0.00111688      -0.00251719
O        1.10017747       1.52460892       8.16109826      -0.01879545       0.01541243       0.00823997
O        5.64100980       4.50995070       8.40944789      -0.00101902      -0.00232836      -0.00001670
O        0.48974050       4.53439216       7.96901335      -0.00408120      -0.00033900       0.00553026
O        9.91266438       1.49614890       6.07404074       0.00088216      -0.00577248      -0.00442032
O        4.70459596       1.50860397       5.66300872      -0.00350307       0.00140613      -0.00066867
O        8.66136788       3.21563081       8.04761214      -0.01134020       0.01170675      -0.02554079
O        8.59970446       5.70193792       8.05180785      -0.00758542      -0.00936088      -0.00430129
O        3.45894445       5.74499630       8.37124511       0.00208880      -0.00281268       0.00019132
O        6.88658908       2.73870687       5.70088747      -0.00038966      -0.00519284      -0.00116968
O        1.76113740       0.25290928       5.99515827      -0.00149886       0.00964074       0.01873227
O        6.87152370       0.25726836       5.69192314      -0.00535143      -0.00063121      -0.00480743
O        3.46708350       3.26236522       8.37065027       0.00017246      -0.00271878      -0.00103246
O        1.75683138       2.74245374       5.97506973      -0.00547478      -0.00556170       0.00809648
Li       0.02717414       9.13064365       0.03756082       0.00633187       0.00838868       0.00668233
Li       0.02395587       5.92842713       0.03136156       0.00833949      -0.00191606       0.00530389
Li       5.16311227       6.01032376       2.34289925       0.00021930       0.00001631       0.00165464
Li       5.16567943       9.01924133       2.34220814       0.00175770       0.00241322       0.00111738
Fe       7.47449472      10.52992422       0.08780937       0.00287461      -0.00119648      -0.00260253
Fe       2.24215128      10.52505202       2.21267747       0.00045757      -0.00136348       0.00208330
Fe       8.06811000       7.51430654       2.46069788      -0.00000352      -0.00058476       0.00506415
Fe       2.90024423       7.51349647       4.57758875       0.00316770       0.00048576      -0.00231610
P        9.31494510      10.48179530       2.72348416      -0.00080414      -0.00643442      -0.00228842
P        4.18701077      10.50909441       4.32003631      -0.00217760       0.00185970       0.00189160
P        6.14142963       7.51651875       0.38173975      -0.00073732       0.00116725       0.00182296
P        0.97478517       7.50717700       1.97053971      -0.00186075      -0.00333793      -0.00084001
O        9.25469506      10.41469758       1.20311777       0.00042799      -0.00465245       0.00253339
O        4.19721138      10.51026844       1.16208667       0.00187456      -0.00106608       0.00095215
O        6.14949720       7.50996997       3.54045694       0.00235751      -0.00119920       0.00241341
O        0.98787642       7.50833166       3.50784092      -0.00294428      -0.00265742       0.00029727
O        5.62892986      10.49701413       3.72466692      -0.00320834      -0.00031069       0.00125844
O        0.43263011      10.50950264       3.30255506      -0.00080904      -0.00224647      -0.00030176
O        9.86804007       7.50434215       1.37732574      -0.00334650      -0.00238353       0.00254475
O        4.69732137       7.51059951       0.97662867      -0.00067091      -0.00146690       0.00060592
O        8.60723153       9.24091754       3.41553463      -0.00163816       0.00146198       0.00306030
O        8.56681039      11.71962498       3.36094549       0.00146261      -0.00095450      -0.00633049
O        3.46781372      11.75455663       3.67751314      -0.00265472       0.00012083       0.00339452
O        6.87155166       8.75766546       1.01804129      -0.00328986       0.00257017       0.00178343
O        1.71743005       6.26666875       1.33577513      -0.00123160      -0.00249440       0.00078268
O        6.87842824       6.27863942       1.02327487       0.00056306       0.00296613       0.00356590
O        3.43646383       9.27839751       3.67666114      -0.00273079       0.00107221       0.00185390
O        1.71956401       8.74651874       1.33576340      -0.00334366      -0.00124369       0.00209693
Li      -0.01862419       9.01304322       4.70264000      -0.00358966      -0.00250888       0.00163112
Li      -0.01109035       6.01145216       4.69379768      -0.00047192      -0.00215823      -0.00228593
Li       5.16702586       6.01295114       7.04402994      -0.00024844      -0.00129765       0.00142822
Li       5.16822117       9.01059319       7.04141746       0.00286688       0.00066559       0.00020573
Fe       7.43532124      10.50164321       4.81799208      -0.00370536      -0.00097178      -0.00066231
Fe       2.25713900      10.51660306       6.95155437       0.00233128      -0.00121814       0.00295938
Fe       8.08890551       7.50941711       7.18116161      -0.00230847       0.00001515       0.00513751
Fe       2.90007216       7.51104973       9.26995292       0.00128295      -0.00146722       0.00149438
P        9.36726973      10.52635049       7.40707213      -0.00209583      -0.01295833      -0.00392770
P        4.20469718      10.51427627       9.01022110       0.00103435       0.00263837       0.00234594
P        6.14548206       7.51008273       5.07706131       0.00172917      -0.00260660       0.00291760
P        0.99788323       7.50511140       6.66651347       0.00212995      -0.00603206       0.00089053
O        9.33521259      10.51706497       5.86066317       0.00445997      -0.00648131       0.00037873
O        4.17164301      10.50960305       5.85765141       0.00047797      -0.00359515       0.00062949
O        6.15594156       7.50874390       8.22845718      -0.00110155      -0.00101934       0.00111762
O        1.01813182       7.50236591       8.20152238       0.00405694      -0.00612023       0.00006689
O        5.64563769      10.51076250       8.40990054       0.00032027       0.00174708       0.00174178
O        0.48155254      10.46637507       7.94431254      -0.00207566      -0.00456696       0.00037939
O        9.88285030       7.50368779       6.07943489       0.00081692      -0.00631463       0.00534963
O        4.70411699       7.50799208       5.67500955       0.00200288      -0.00271481       0.00258031
O        8.61002803       9.28362349       8.04397592       0.00009790      -0.00318656      -0.00737798
O        8.57368736      11.74545012       8.00150225      -0.00766179      -0.01211883      -0.01096385
O        3.46806047      11.75333209       8.37359929      -0.00146418       0.00170160       0.00200207
O        6.88047058       8.74817045       5.72007954       0.00019157      -0.00051946       0.00276123
O        1.73251101       6.26752832       6.01582886      -0.00060402      -0.00419807       0.00073206
O        6.88627838       6.27314330       5.71869325       0.00176117      -0.00212457       0.00253076
O        3.46382554       9.27326862       8.37409685       0.00265249       0.00172283       0.00219435
O        1.73749288       8.73904603       6.01696834       0.00012113      -0.00385892       0.00153844
111
Lattice="10.332 0.0 6.326525364395227e-16 1.932963424911317e-15 12.02 7.3601272628755925e-16 0.0 0.0 9.384" Properties=species:S:1:pos:R:3:forces:R:3 energy=-778.7170959800942 pbc="T T T"
Li      -0.50046047       1.88308154      -0.32150965      -0.01041340       0.07174619       0.01949921
Li       5.15941767      -0.01389671       2.33614535       0.00080544       0.00141780      -0.00047520
Li       5.16068495       3.01727815       2.33673306       0.00101694      -0.00208230      -0.00047039
Fe       7.45673151       4.50704687       0.10337222      -0.00255112       0.00470364       0.00357411
Fe       2.24088761       4.49075083       2.20971623       0.00262289      -0.00208592       0.00292709
Fe       8.07397451       1.49540607       2.47845233      -0.00024510      -0.00219307      -0.00555455
Fe       2.91381454       1.50250068       4.54585490      -0.00771027       0.00006960       0.00157784
P        9.31623480       4.53214982       2.72913966      -0.00137303       0.00154132      -0.00007346
P        4.18661993       4.51736773       4.31429019      -0.00098449      -0.00099818       0.00136486
P        6.14172351       1.50202191       0.37161455       0.00193366      -0.00073141      -0.00531410
P        1.00522737       1.49459041       2.00822591      -0.00094255       0.00016416      -0.00014778
O        9.26488991       4.58565292       1.20508364       0.00313589      -0.00083489       0.00326447
O        4.19373672       4.51140445       1.16060841       0.00424044       0.00080253      -0.00115128
O        6.14582189       1.50534576       3.52028464      -0.00513493      -0.00024205      -0.00519294
O        1.01437965       1.50045710       3.55480948      -0.01342573      -0.00022748       0.01102016
O        5.62987279       4.52655876       3.72253344      -0.00175310      -0.00181050       0.00204712
O        0.43328901       4.50867151       3.30948506      -0.00134304      -0.00420820       0.00337399
O        9.87757727       1.49450628       1.49574979      -0.00195288       0.01130765      -0.03059045
O        4.70050965       1.50458264       0.97105560       0.00247908       0.00029248      -0.00556383
O        8.56607717       3.29568995       3.36530435       0.00141228      -0.00436667      -0.00516717
O        8.60784300       5.77502297       3.41323221      -0.00034520      -0.00552834       0.00530520
O        3.43894276       5.75022307       3.67438862       0.00044134       0.00031346       0.00155530
O        6.88087896       2.74336165       1.00495871       0.00817099      -0.00218558      -0.00800449
O        1.80618664       0.28239456       1.41277316       0.00838910      -0.00773275      -0.02453529
O        6.87801988       0.26343965       1.00988624       0.00762863       0.00300658      -0.00674588
O        3.46373509       3.27492937       3.66837342      -0.00183759       0.00124033       0.00249485
O        1.78337237       2.71700413       1.39509419       0.01168155       0.01086661      -0.01662269
Li       0.01717374       3.01421131       4.69169441       0.00755278      -0.00840460      -0.00532953
Li       0.01282999      -0.01675545       4.69243929       0.00581541       0.00433624      -0.00588651
Li       5.15589264       0.00287503       7.04357634      -0.00457249       0.00232774      -0.00213174
Li       5.15804369       2.99924626       7.04522467      -0.00176806      -0.00413521      -0.00016179
Fe       7.43423625       4.51913193       4.82248354      -0.00586877      -0.00262778       0.00264133
Fe       2.26878167       4.50290068       6.93713571       0.00644505      -0.00148009      -0.00169709
Fe       8.04636084       1.47363242       7.08402804       0.00394758      -0.01178023      -0.02488941
Fe       2.86820834       1.49634282       9.31312490      -0.01577075       0.00115576      -0.00002686
P        9.38452480       4.46685012       7.42395006       0.00448823      -0.00656312       0.00022154
P        4.20216860       4.50569691       9.00842990       0.00179685      -0.00310312       0.00167252
P        6.13418337       1.50354923       5.05575107      -0.00895146      -0.00091930      -0.00520323
P        1.04575244       1.49782394       6.63176918      -0.01650060       0.00100237      -0.02351043
O        9.33222623       4.47263040       5.88123029       0.00352774      -0.01096124       0.01282029
O        4.17338907       4.51243559       5.85246042       0.00099956       0.00213850      -0.00006653
O        6.14722355       1.50102956       8.21791711       0.00789889      -0.00059526      -0.00464066
O        1.10857576       1.51150881       8.15708138      -0.01411019       0.00804651       0.00598179
O        5.64584047       4.51034770       8.41023075       0.00069601      -0.00332347       0.00139504
O        0.50026869       4.55558482       7.95674722       0.00208239       0.00809378       0.00151569
O        9.91973103       1.49712276       6.07402795       0.00104835      -0.00458339      -0.00755235
O        4.69980083       1.50641953       5.66368211      -0.00648458       0.00116351      -0.00094221
O        8.67911649       3.19773669       8.05292671       0.00882229       0.00271476      -0.01467417
O        8.59482553       5.68722985       8.05391474      -0.00962371      -0.01967906      -0.00528758
O        3.46428121       5.74772097       8.37170711       0.00560702      -0.00231674       0.00091568
O        6.87786534       2.74082805       5.69551449      -0.00525017      -0.00470272      -0.00487473
O        1.76582689       0.25178210       5.98605771      -0.00078869       0.01376189       0.02178622
O        6.86672887       0.25629972       5.68808829      -0.01081243      -0.00137453      -0.00886991
O        3.47055085       3.26530632       8.37134743       0.00006844      -0.00257971      -0.00047665
O        1.76384801       2.74388835       5.97690303      -0.00366882      -0.01130394       0.01405399
Li       0.02643087       9.12448105       0.03611468       0.00747858       0.00873518       0.00793951
Li       0.02706008       5.91413853       0.03537344       0.00962650      -0.00642315       0.00838330
Li       5.16421108       6.00983619       2.34231220       0.00138296      -0.00088337       0.00202879
Li       5.16595711       9.01768720       2.34168000       0.00203287       0.00252673       0.00141823
Fe       7.47253957      10.52840196       0.09111601       0.00383759      -0.00066642      -0.00207087
Fe       2.24149580      10.52756009       2.21068443       0.00074286      -0.00091947       0.00231422
Fe       8.06789163       7.51301622       2.46057479       0.00068186      -0.00057720       0.00766778
Fe       2.89980602       7.51308292       4.57769344       0.00336342       0.00021363      -0.00282121
P        9.31453957      10.48319526       2.72594389      -0.00117946      -0.00639656      -0.00187688
P        4.18796761      10.50734516       4.31783018      -0.00231676       0.00156506       0.00165747
P        6.14228921       7.51497948       0.38265729       0.00045194       0.00101906       0.00306667
P        0.97436634       7.50941840       1.97063524      -0.00179619      -0.00196125      -0.00034775
O        9.25586389      10.41871635       1.20502268       0.00121667      -0.00379561       0.00408101
O        4.19754874      10.51028134       1.16129110       0.00281495      -0.00055663       0.00005007
O        6.15010471       7.51082088       3.54177669       0.00400841      -0.00092752       0.00355105
O        0.98763697       7.50994146       3.50788630      -0.00287462      -0.00138044       0.00125522
O        5.63022494      10.49513499       3.72353112      -0.00348434       0.00009823       0.00146666
O        0.43210724      10.51136003       3.30497992      -0.00063903      -0.00059545       0.00164354
O        9.86761678       7.50848367       1.37778647      -0.00336151      -0.00057719       0.00362072
O        4.69715816       7.51183358       0.97513469      -0.00041871      -0.00055784      -0.00031191
O        8.60861220       9.24112580       3.41728490      -0.00100229       0.00300155       0.00579777
O        8.56379019      11.71964302       3.36344562       0.00157805       0.00122602      -0.00721342
O        3.46923443      11.75246415       3.67397006      -0.00343691      -0.00081808       0.00261573
O        6.87260878       8.75533147       1.02074492      -0.00206648       0.00188149       0.00379730
O        1.71752510       6.26901320       1.33581289      -0.00175595      -0.00165197       0.00197512
O        6.87600921       6.27675587       1.02453593       0.00022749       0.00256416       0.00552613
O        3.43716365       9.27662871       3.67555561      -0.00215169       0.00029132       0.00216237
O        1.71973490       8.74851641       1.33589339      -0.00293493      -0.00004933       0.00254857
Li      -0.01766081       9.01356521       4.70290715      -0.00345323      -0.00030418       0.00312023
Li      -0.01420622       6.01117442       4.69790336      -0.00164736      -0.00219660       0.00046153
Li       5.16821640       6.01418359       7.04394446       0.00170488      -0.00146892       0.00142354
Li       5.16931169       9.01020527       7.04212466       0.00381546       0.00129866       0.00027238
Fe       7.43604612      10.49946095       4.81912714      -0.00477618      -0.00116526       0.00071255
Fe       2.26175859      10.51561209       6.94816635       0.00328113      -0.00024372       0.00169654
Fe       8.09220733       7.50843603       7.18790248      -0.00064696      -0.00043830       0.01049131
Fe       2.90032508       7.51179069       9.26987480       0.00178115      -0.00092989       0.00216612
P        9.37462699      10.54408760       7.41573710       0.00007372      -0.00270472      -0.00104821
P        4.20565007      10.51555076       9.00942090       0.00176017       0.00388964       0.00239291
P        6.14602003       7.51115751       5.07838080       0.00288702      -0.00184591       0.00434881
P        0.99780573       7.50861035       6.66720098       0.00191410      -0.00342279       0.00175390
O        9.33300538      10.53295967       5.86986133       0.00426694       0.00095122       0.00661118
O        4.17282416      10.50946109       5.85570452       0.00009045      -0.00387180      -0.00009172
O        6.16049471       7.51001867       8.22900311       0.00260501      -0.00069831       0.00165228
O        1.02054971       7.50832941       8.20189511       0.00628271      -0.00293913       0.00057498
O        5.64762112      10.51147382       8.40988987       0.00116569       0.00301074       0.00190439
O        0.48992361      10.46576560       7.94726837       0.00037237      -0.00465731       0.00101145
O        9.88037887       7.50626135       6.08480162      -0.00087016      -0.00457582       0.01041601
O        4.70432509       7.50990637       5.67559342       0.00296727      -0.00172241       0.00335790
O        8.60275576       9.30826881       8.04825927      -0.00414343       0.00945625      -0.00807987
O        8.61447176      11.78386219       8.02186722       0.00655050       0.00284811      -0.00641937
O        3.47091769      11.75525029       8.37304436      -0.00137186       0.00269004       0.00133330
O        6.88180972       8.74880072       5.72158813       0.00130057       0.00035671       0.00377118
O        1.73416025       6.27403218       6.01346719      -0.00126896      -0.00110927       0.00032883
O        6.88528588       6.27438424       5.72155543       0.00235334      -0.00179986       0.00418792
O        3.46547278       9.27432893       8.37277463       0.00506756       0.00226236       0.00206242
O        1.73416380       8.74313658       6.01436880      -0.00265888      -0.00160703       0.00048492
111
Lattice="10.332 0.0 6.326525364395227e-16 1.932963424911317e-15 12.02 7.3601272628755925e-16 0.0 0.0 9.384" Properties=species:S:1:pos:R:3:forces:R:3 energy=-778.7091444921946 pbc="T T T"
Li      -0.56774761       1.50266225      -0.36437058      -0.04149715       0.00003079      -0.00586902
Li       5.15930425      -0.01395911       2.33544359       0.00075332       0.00204938      -0.00089233
Li       5.15930421       3.01896488       2.33544392       0.00075571      -0.00204439      -0.00089226
Fe       7.46718371       4.50019776       0.09758353       0.00239307       0.00128137       0.00189628
Fe       2.24081699       4.49357772       2.20948159       0.00113865      -0.00009503       0.00280483
Fe       8.07597129       1.50249050       2.48114619       0.00058233       0.00000367      -0.00697589
Fe       2.91211749       1.50250857       4.54282526      -0.01030173       0.00000498      -0.00145828
P        9.31480755       4.53828653       2.72897152      -0.00108904       0.00458520       0.00007307
P        4.18774808       4.51831636       4.31588730      -0.00195156      -0.00122461       0.00151988
P        6.14182202       1.50250741       0.37069110       0.00144199       0.00001193      -0.00711348
P        1.00545079       1.50247919       2.00597972      -0.00290546       0.00001941      -0.00173022
O        9.25890931       4.59955896       1.20709583       0.00268552       0.00340949       0.00549488
O        4.19677865       4.51372894       1.16085265       0.00382801       0.00054352      -0.00064788
O        6.14280365       1.50250746       3.51853348      -0.00635790      -0.00000145      -0.00702970
O        1.01396407       1.50248835       3.55322693      -0.01890393       0.00001766       0.01127011
O        5.63063676       4.52957543       3.72343012      -0.00301638      -0.00110179       0.00222192
O        0.43214133       4.51142335       3.30843846      -0.00048331      -0.00170884       0.00424528
O        9.87839635       1.50244386       1.49426328      -0.00397472       0.00006137      -0.03351893
O        4.70076099       1.50251149       0.96984639       0.00196577       0.00000124      -0.00737111
O        8.56313251       3.30177193       3.36472437       0.00154486      -0.00337989      -0.00689419
O        8.60891490       5.78077381       3.41859344      -0.00032744      -0.00477084       0.00866115
O        3.43793939       5.74968856       3.67472385      -0.00103043       0.00027775       0.00214276
O        6.88005441       2.74236576       1.00636592       0.00875162      -0.00328553      -0.00907716
O        1.79836229       0.28527164       1.40617003       0.01071135      -0.00909771      -0.02641654
O        6.88004609       0.26264692       1.00636802       0.00876154       0.00328208      -0.00907245
O        3.46777965       3.27426186       3.67078773      -0.00365374       0.00150937       0.00233305
O        1.79830798       2.71971871       1.40615486       0.01073234       0.00910022      -0.02638978
Li       0.01627239       3.01840782       4.69275145       0.00716525      -0.00780409      -0.00642323
Li       0.01627484      -0.01340278       4.69277092       0.00715952       0.00779226      -0.00644949
Li       5.15473245       0.00392258       7.04484060      -0.00420836       0.00364742      -0.00154194
Li       5.15473156       3.00108766       7.04484399      -0.00420706      -0.00364596      -0.00154513
Fe       7.43602548       4.52402657       4.82218452      -0.00490880      -0.00102186       0.00375172
Fe       2.26635073       4.50692919       6.94307371       0.00504966      -0.00055474      -0.00012750
Fe       8.03699999       1.50249067       7.06531679       0.00172208       0.00000013      -0.03739267
Fe       2.86562788       1.50251512       9.31395762      -0.01909786      -0.00001698      -0.00145388
P        9.38383800       4.46053941       7.42590735       0.00432526      -0.01181278       0.00381226
P        4.20530868       4.50781341       9.00887909       0.00230086      -0.00414198       0.00230149
P        6.12972599       1.50250706       5.05333722      -0.01202355       0.00000685      -0.00725822
P        1.04956226       1.50252227       6.63093400      -0.01981409       0.00002055      -0.02995580
O        9.33038801       4.47197142       5.88113445       0.00383211      -0.01318672       0.01473823
O        4.17298003       4.51463837       5.85403815       0.00006796       0.00327781      -0.00027812
O        6.14823223       1.50250907       8.21677983       0.00907356      -0.00000284      -0.00639588
O        1.11034472       1.50253566       8.15639246      -0.01096992       0.00000126       0.00405031
O        5.64837131       4.51167545       8.41025748       0.00145015      -0.00418462       0.00193118
O        0.50030431       4.56186395       7.95119642       0.00385552       0.00763976       0.00181560
O        9.92379480       1.50250927       6.07237436       0.00088528      -0.00005471      -0.01353910
O        4.69691479       1.50251177       5.66343510      -0.00834812       0.00000397      -0.00169255
O        8.66983245       3.19526955       8.04812684       0.02632293      -0.01779416      -0.00134523
O        8.59399822       5.68609020       8.05360544      -0.00980857      -0.02559743      -0.00660279
O        3.46669742       5.74971101       8.37204419       0.00689381      -0.00235458       0.00157153
O        6.86837143       2.74561240       5.68907616      -0.01106319      -0.00134961      -0.00897871
O        1.76773972       0.25616921       5.98031717      -0.00130828       0.01473243       0.02095373
O        6.86836018       0.25939602       5.68907388      -0.01105399       0.00134099      -0.00897432
O        3.47210472       3.26785134       8.37222085      -0.00105930      -0.00283673       0.00064621
O        1.76770343       2.74887962       5.98028210      -0.00123665      -0.01472930       0.02102901
Li       0.02718952       9.11891277       0.03594792       0.00921630       0.00846198       0.00937975
Li       0.02719522       5.90611172       0.03594736       0.00921658      -0.00846690       0.00937703
Li       5.16545380       6.00877617       2.34172778       0.00212233      -0.00196026       0.00190102
Li       5.16545965       9.01624001       2.34172977       0.00212903       0.00196103       0.00190002
Fe       7.46718362      10.52481854       0.09757086       0.00240792      -0.00128657       0.00190260
Fe       2.24083011      10.53141265       2.20949312       0.00112287       0.00010057       0.00279635
Fe       8.06771416       7.51249900       2.46039977       0.00114346       0.00000716       0.00933524
Fe       2.89962514       7.51250597       4.57773748       0.00303814       0.00000428      -0.00270131
P        9.31480100      10.48670734       2.72897180      -0.00107691      -0.00459606       0.00008068
P        4.18774653      10.50669530       4.31590040      -0.00195876       0.00124750       0.00151108
P        6.14298279       7.51250865       0.38312828       0.00167612       0.00001363       0.00394405
P        0.97426677       7.51250086       1.97075388      -0.00176651       0.00000153       0.00022223
O        9.25889495      10.42543569       1.20709840       0.00266378      -0.00341697       0.00547541
O        4.19679225      10.51128365       1.16085913       0.00380971      -0.00055049      -0.00065600
O        6.15035961       7.51250667       3.54244088       0.00494467      -0.00000434       0.00433112
O        0.98742738       7.51250503       3.50799916      -0.00308713      -0.00001067       0.00193155
O        5.63063199      10.49543128       3.72343856      -0.00300112       0.00110650       0.00221152
O        0.43213769      10.51359258       3.30842774      -0.00047910       0.00169701       0.00427080
O        9.86752012       7.51250460       1.37793374      -0.00330635      -0.00001311       0.00428525
O        4.69725144       7.51250567       0.97417157      -0.00001612      -0.00000299      -0.00148406
O        8.60893010       9.24420964       3.41859904      -0.00033632       0.00478167       0.00865084
O        8.56310716      11.72320704       3.36473663       0.00155396       0.00338233      -0.00691049
O        3.46777856      11.75075076       3.67080403      -0.00363934      -0.00153193       0.00232235
O        6.87411806       8.75161366       1.02374113      -0.00044010      -0.00035187       0.00606193
O        1.71882828       6.27284343       1.33599321      -0.00236188      -0.00082276       0.00290420
O        6.87412442       6.27340830       1.02374410      -0.00043815       0.00034435       0.00607306
O        3.43793544       9.27532337       3.67473474      -0.00103872      -0.00027910       0.00213533
O        1.71883319       8.75215568       1.33599386      -0.00234788       0.00083522       0.00290104
Li      -0.01648840       9.01412955       4.70189702      -0.00273839       0.00192645       0.00352208
Li      -0.01648477       6.01087717       4.70189956      -0.00274010      -0.00192537       0.00351578
Li       5.16938033       6.01481520       7.04311232       0.00366415      -0.00170847       0.00083442
Li       5.16937070       9.01020074       7.04311701       0.00366660       0.00170731       0.00082613
Fe       7.43602746      10.50098006       4.82218514      -0.00491336       0.00101284       0.00375268
Fe       2.26633764      10.51811478       6.94308942       0.00506944       0.00050064      -0.00011381
Fe       8.09405608       7.51249876       7.19169285       0.00061026       0.00000536       0.01454207
Fe       2.90056525       7.51250812       9.26988440       0.00181920       0.00000406       0.00244237
P        9.38383070      10.56446323       7.42590360       0.00432062       0.01183929       0.00381276
P        4.20530675      10.51720478       9.00888503       0.00230646       0.00416673       0.00230068
P        6.14635921       7.51250670       5.07905464       0.00381247       0.00005676       0.00530223
P        0.99732597       7.51251275       6.66783526       0.00094927       0.00005873       0.00274821
O        9.33040132      10.55302191       5.88113012       0.00383182       0.01321210       0.01470612
O        4.17297713      10.51037498       5.85405008       0.00007326      -0.00328339      -0.00027403
O        6.16360308       7.51250578       8.22916687       0.00632318       0.00000189       0.00212258
O        1.02123045       7.51250871       8.20237959       0.00745244       0.00000506       0.00143508
O        5.64836595      10.51334500       8.41025454       0.00145927       0.00417396       0.00193098
O        0.50029271      10.46319325       7.95121212       0.00386892      -0.00766856       0.00181235
O        9.87829751       7.51249837       6.08841322      -0.00303733      -0.00000231       0.01461768
O        4.70450696       7.51250711       5.67596297       0.00369132      -0.00000217       0.00388615
O        8.59402357       9.33889124       8.05359640      -0.00984181       0.02557082      -0.00656021
O        8.66976124      11.82970671       8.04810111       0.02636321       0.01780543      -0.00133341
O        3.47209889      11.75717034       8.37223500      -0.00104317       0.00281770       0.00064887
O        6.88372453       8.74960822       5.72255697       0.00246097       0.00130410       0.00467808
O        1.73315788       6.27855879       6.01296690      -0.00403824       0.00052033       0.00021805
O        6.88372700       6.27541108       5.72255671       0.00248837      -0.00136182       0.00469874
O        3.46669148       9.27531084       8.37205049       0.00689312       0.00234416       0.00157880
O        1.73313929       8.74648453       6.01297569      -0.00407195      -0.00058613       0.00023529
111
Lattice="10.332 0.0 6.326525364395227e-16 1.932963424911317e-15 12.02 7.3601272628755925e-16 0.0 0.0 9.384" Properties=species:S:1:pos:R:3:forces:R:3 energy=-778.7170949585529 pbc="T T T"
Li      -0.50044076       1.12193019      -0.32152119      -0.01044604      -0.07175113       0.01949389
Li       5.16068595      -0.01227369       2.33673428       0.00101697       0.00208723      -0.00047108
Li       5.15941698       3.01890015       2.33614570       0.00080555      -0.00141258      -0.00047592
Fe       7.47254423       4.49660831       0.09112013       0.00383016       0.00067000      -0.00207111
Fe       2.24148824       4.49744429       2.21068259       0.00074450       0.00092371       0.00231011
Fe       8.07397555       1.50958772       2.47844863      -0.00024817       0.00220455      -0.00555117
Fe       2.91381458       1.50251902       4.54585823      -0.00771026      -0.00007834       0.00157417
P        9.31454442       4.54180836       2.72593800      -0.00118466       0.00639052      -0.00187212
P        4.18797270       4.51766425       4.31782182      -0.00231636      -0.00156580       0.00166015
P        6.14172314       1.50299003       0.37161499       0.00193442       0.00073282      -0.00531428
P        1.00522886       1.51038818       2.00822650      -0.00094310      -0.00011947      -0.00014507
O        9.25587735       4.60628645       1.20501621       0.00121367       0.00380180       0.00408194
O        4.19754046       4.51472834       1.16128568       0.00282051       0.00056472       0.00005342
O        6.14582430       1.49966141       3.52028483      -0.00513682       0.00024090      -0.00519267
O        1.01437972       1.50452771       3.55480979      -0.01341977       0.00023368       0.01102291
O        5.63023103       4.52987396       3.72352361      -0.00348725      -0.00009670       0.00146887
O        0.43210864       4.51365680       3.30498602      -0.00063529       0.00059759       0.00163114
O        9.87757849       1.51042242       1.49575140      -0.00195242      -0.01124505      -0.03059167
O        4.70050962       1.50043119       0.97105656       0.00247954      -0.00028687      -0.00556407
O        8.56380899       3.30534951       3.36343293       0.00156517      -0.00121614      -0.00719954
O        8.60860207       5.78387154       3.41727402      -0.00099913      -0.00299921       0.00580647
O        3.43716768       5.74837927       3.67554822      -0.00215376      -0.00028778       0.00216666
O        6.87802440       2.74156891       1.00988746       0.00762520      -0.00300246      -0.00674851
O        1.78341099       0.28800105       1.39508794       0.01163671      -0.01085962      -0.01659955
O        6.88087453       0.26164686       1.00495737       0.00817382       0.00218959      -0.00800101
O        3.46924281       3.27254287       3.67395978      -0.00344077       0.00081831       0.00262348
O        1.80615039       2.72261041       1.41277774       0.00843221       0.00774432      -0.02454806
Li       0.01282829       3.02177060       4.69241902       0.00581283      -0.00433770      -0.00587490
Li       0.01716994      -0.00919443       4.69171284       0.00755624       0.00839909      -0.00534185
Li       5.15804582       0.00576248       7.04522254      -0.00176531       0.00414023      -0.00015807
Li       5.15589277       3.00213417       7.04357751      -0.00457586      -0.00232328      -0.00213380
Fe       7.43604636       4.52554668       4.81912166      -0.00477478       0.00116851       0.00070762
Fe       2.26176214       4.50942854       6.94815779       0.00328088       0.00023685       0.00169786
Fe       8.04636080       1.53138862       7.08403217       0.00394203       0.01177341      -0.02489147
Fe       2.86820748       1.50869517       9.31312467      -0.01576572      -0.00117459      -0.00002806
P        9.37462192       4.48093709       7.41573555       0.00007481       0.00270379      -0.00105722
P        4.20565241       4.50946809       9.00941598       0.00175765      -0.00389746       0.00239533
P        6.13418522       1.50145844       5.05575124      -0.00895178       0.00092340      -0.00520296
P        1.04574936       1.50725531       6.63176885      -0.01649109      -0.00107772      -0.02351068
O        9.33298890       4.49205897       5.86985998       0.00427613      -0.00094294       0.00659830
O        4.17283004       4.51554857       5.85569612       0.00008980       0.00388041      -0.00009001
O        6.14722251       1.50398591       8.21791754       0.00789961       0.00059726      -0.00464099
O        1.10857186       1.49360940       8.15708152      -0.01410443      -0.00810629       0.00598035
O        5.64762551       4.51354793       8.40989157       0.00116108      -0.00301439       0.00190128
O        0.48992112       4.55928076       7.94725404       0.00036889       0.00464245       0.00102052
O        9.91972785       1.50790372       6.07402686       0.00106416       0.00459726      -0.00755093
O        4.69980244       1.49859369       5.66368208      -0.00648498      -0.00116227      -0.00094275
O        8.61448049       3.24115704       8.02187168       0.00654150      -0.00284588      -0.00642080
O        8.60274206       5.71674876       8.04826112      -0.00413804      -0.00944645      -0.00808048
O        3.46547345       5.75068951       8.37276919       0.00507036      -0.00226669       0.00206218
O        6.86673338       2.74870817       5.68808661      -0.01081293       0.00138131      -0.00887295
O        1.76387565       0.26118769       5.97694733      -0.00366350       0.01125642       0.01397285
O        6.87786356       0.26417978       5.69551744      -0.00524993       0.00470820      -0.00487352
O        3.47092511       3.26976954       8.37303120      -0.00138419      -0.00269130       0.00133836
O        1.76579641       2.75329390       5.98601607      -0.00080423      -0.01380953       0.02185731
Li       0.02706421       9.11089440       0.03538299       0.00962190       0.00641408       0.00837536
Li       0.02642594       5.90055279       0.03610606       0.00748321      -0.00874455       0.00794679
Li       5.16595717       6.00732377       2.34167662       0.00202932      -0.00252625       0.00141766
Li       5.16421068       9.01517602       2.34231573       0.00138641       0.00088319       0.00202843
Fe       7.45672705      10.51796296       0.10336837      -0.00254408      -0.00469711       0.00357336
Fe       2.24089513      10.53425294       2.20971963       0.00262070       0.00209183       0.00292897
Fe       8.06789172       7.51199242       2.46057538       0.00068124       0.00057088       0.00766647
Fe       2.89980623       7.51192758       4.57769313       0.00336261      -0.00021620      -0.00282021
P        9.31623062      10.49285416       2.72914445      -0.00136755      -0.00154735      -0.00007754
P        4.18661356      10.50764310       4.31429977      -0.00098351       0.00099575       0.00136166
P        6.14228906       7.51003473       0.38265707       0.00045188      -0.00102605       0.00306712
P        0.97436650       7.51559727       1.97063543      -0.00179633       0.00191999      -0.00034769
O        9.26487780      10.43934903       1.20508908       0.00313742       0.00083848       0.00326404
O        4.19374423      10.51360678       1.16061464       0.00423476      -0.00079434      -0.00115398
O        6.15010457       7.51419611       3.54177644       0.00400748       0.00092286       0.00355110
O        0.98763730       7.51507646       3.50788650      -0.00287475       0.00138480       0.00125538
O        5.62986511      10.49845309       3.72254126      -0.00174863       0.00180916       0.00204486
O        0.43328800      10.51634456       3.30947904      -0.00134562       0.00421016       0.00338432
O        9.86761679       7.51653508       1.37778702      -0.00336132       0.00058340       0.00362027
O        4.69715813       7.51317463       0.97513482      -0.00041891       0.00056648      -0.00031168
O        8.60785182       9.24997591       3.41324245      -0.00034847       0.00552950       0.00529675
O        8.56606108      11.72930437       3.36531512       0.00142124       0.00437307      -0.00517623
O        3.46372405      11.75007888       3.66838652      -0.00183087      -0.00124125       0.00248550
O        6.87600682       8.74825932       1.02453573       0.00022239      -0.00256670       0.00552507
O        1.71972782       6.27649462       1.33589684      -0.00291247       0.00004880       0.00253551
O        6.87261130       6.26968381       1.02074443      -0.00206200      -0.00188512       0.00379848
O        3.43893822       9.27478603       3.67439690       0.00044368      -0.00031056       0.00155027
O        1.71753228       8.75599782       1.33580961      -0.00177832       0.00165075       0.00198834
Li      -0.01421087       9.01383021       4.69789876      -0.00164298       0.00220287       0.00046577
Li      -0.01765663       6.01143885       4.70291160      -0.00345726       0.00031080       0.00311670
Li       5.16931997       6.01480564       7.04211707       0.00381882      -0.00129737       0.00027696
Li       5.16820746       9.01082853       7.04395212       0.00170126       0.00146923       0.00141945
Fe       7.43423539      10.50587657       4.82248736      -0.00586701       0.00263018       0.00264737
Fe       2.26877750      10.52213955       6.93714555       0.00644506       0.00147305      -0.00169909
Fe       8.09220673       7.51657935       7.18790118      -0.00064644       0.00045236       0.01049202
Fe       2.90032506       7.51322640       9.26987495       0.00178095       0.00092772       0.00216582
P        9.38452957      10.55817183       7.42395031       0.00448606       0.00656614       0.00023194
P        4.20216466      10.51932397       9.00843558       0.00180117       0.00309158       0.00167082
P        6.14601983       7.51385634       5.07838057       0.00288690       0.00185852       0.00434894
P        0.99780571       7.51641236       6.66720104       0.00191384       0.00344217       0.00175418
O        9.33224456      10.55238455       5.88123040       0.00351728       0.01097238       0.01283324
O        4.17338298      10.51257417       5.85247004       0.00100105      -0.00212885      -0.00006830
O        6.16049396       7.51499814       8.22900287       0.00260528       0.00070136       0.00165286
O        1.02054908       7.51668348       8.20189524       0.00628318       0.00294990       0.00057521
O        5.64583436      10.51467637       8.41022960       0.00070158       0.00331842       0.00139732
O        0.50027052      10.46946403       7.95676368       0.00208515      -0.00810990       0.00150432
O        9.88037909       7.51874843       6.08480110      -0.00086998       0.00458224       0.01041566
O        4.70432499       7.51510711       5.67559335       0.00296673       0.00172533       0.00335772
O        8.59483988       9.33778496       8.05391208      -0.00962906       0.01968773      -0.00528584
O        8.67910541      11.82727987       8.05292005       0.00883952      -0.00270247      -0.01466586
O        3.47054043      11.75971498       8.37136141       0.00008379       0.00257648      -0.00048203
O        6.88528615       8.75062999       5.72155747       0.00235012       0.00179218       0.00418508
O        1.73416999       6.28189222       6.01435883      -0.00265118       0.00161526       0.00049065
O        6.88180919       6.27621331       5.72158508       0.00130337      -0.00036415       0.00377465
O        3.46427914       9.27729902       8.37171395       0.00560445       0.00231107       0.00091487
O        1.73415445       8.75099686       6.01347827      -0.00127689       0.00111743       0.00032330
111
Lattice="10.332 0.0 6.326525364395227e-16 1.932963424911317e-15 12.02 7.3601272628755925e-16 0.0 0.0 9.384" Properties=species:S:1:pos:R:3:forces:R:3 energy=-778.7647382245633 pbc="T T T"
Li      -0.35932656       0.76154290      -0.23808567       0.04582378      -0.14523009       0.05406289
Li       5.16275814      -0.00965530       2.33860293       0.00163975       0.00248910      -0.00025999
Li       5.16021924       3.01756471       2.33819341       0.00086184      -0.00135352       0.00025460
Fe       7.47449658       4.49507976       0.08781149       0.00287385       0.00119935      -0.00260317
Fe       2.24214723       4.49994967       2.21267790       0.00046061       0.00136696       0.00208073
Fe       8.07412968       1.51534669       2.46772401       0.00052543       0.00456392      -0.00825211
Fe       2.91403216       1.50198927       4.55136183      -0.00716396       0.00032926       0.00464656
P        9.31494721       4.54320601       2.72348102      -0.00080504       0.00643460      -0.00228723
P        4.18701337       4.51590936       4.32003246      -0.00217776      -0.00185943       0.00189334
P        6.14040892       1.50280786       0.37244999       0.00211561       0.00068713      -0.00333874
P        0.99913510       1.51824495       2.00629134      -0.00233248       0.00113612      -0.00281633
O        9.25470265       4.61030256       1.20311430       0.00042171       0.00465744       0.00253492
O        4.19720769       4.51473461       1.16208433       0.00187593       0.00107125       0.00095219
O        6.15228723       1.49867299       3.52258164      -0.00230030       0.00041936      -0.00255001
O        1.01069074       1.50528711       3.55215786      -0.00695545       0.00104389       0.00499448
O        5.62893300       4.52799009       3.72466384      -0.00320940       0.00030971       0.00125739
O        0.43263059       4.51550470       3.30255797      -0.00080834       0.00224667      -0.00030385
O        9.87399556       1.51350954       1.48451861      -0.00101563      -0.01743411      -0.03173231
O        4.69935411       1.49973214       0.97287519       0.00296626       0.00008627      -0.00361508
O        8.56681843       3.30537159       3.36093946       0.00145929       0.00095831      -0.00632716
O        8.60722752       5.78408151       3.41552872      -0.00163842      -0.00146193       0.00306355
O        3.43646613       5.74660613       3.67665828      -0.00273271      -0.00107296       0.00185429
O        6.87659369       2.74041126       1.01198735       0.00618498      -0.00227830      -0.00409253
O        1.76116721       0.28838403       1.37809954       0.00628489      -0.01041112      -0.00783605
O        6.87927583       0.26026207       1.00450712       0.00513800       0.00013503      -0.00582841
O        3.46781794       3.27044610       3.67750807      -0.00265543      -0.00011996       0.00339897
O        1.80924094       2.72491566       1.41495993       0.00383981       0.00651614      -0.01720454
Li       0.00864665       3.02138392       4.69273623       0.00402727      -0.00203210      -0.00418091
Li       0.01765651      -0.00488750       4.68934462       0.00712067       0.00861469      -0.00518547
Li       5.16229236       0.00734367       7.04424852       0.00041205       0.00439050       0.00034166
Li       5.15953795       3.00205662       7.04247508      -0.00311923      -0.00183850      -0.00150703
Fe       7.43532180       4.52335958       4.81798964      -0.00370646       0.00097424      -0.00066433
Fe       2.25714023       4.50841399       6.95154951       0.00233106       0.00122100       0.00296443
Fe       8.06438113       1.54311771       7.11595843       0.00950421       0.01104989      -0.00568298
Fe       2.86943925       1.51539487       9.31064715      -0.01192026      -0.00027601      -0.00013687
P        9.36726709       4.49866059       7.40707138      -0.00209734       0.01296093      -0.00393009
P        4.20469819       4.51073189       9.01021901       0.00103328      -0.00264023       0.00234595
P        6.14166318       1.50059388       5.05899058      -0.00418180       0.00122794      -0.00238485
P        1.03682837       1.50667113       6.63662909      -0.01240987      -0.00208815      -0.01016631
O        9.33520429       4.50794363       5.86066234       0.00446467       0.00648429       0.00037604
O        4.17164574       4.51540009       5.85764749       0.00047892       0.00360089       0.00063121
O        6.14478575       1.50465962       8.21923050       0.00546988       0.00111797      -0.00251724
O        1.10017147       1.48046333       8.16109973      -0.01878755      -0.01548120       0.00823859
O        5.64563953       4.51424746       8.40990132       0.00031862      -0.00174968       0.00173990
O        0.48155091       4.55864504       7.94430645      -0.00207762       0.00456312       0.00038104
O        9.91266279       1.50886613       6.07403921       0.00088253       0.00577335      -0.00442066
O        4.70459668       1.49640071       5.66300849      -0.00350306      -0.00140460      -0.00066850
O        8.57368930       3.27955936       8.00150470      -0.00766464       0.01212235      -0.01096861
O        8.61002243       5.74138521       8.04397665       0.00009855       0.00319039      -0.00737747
O        3.46382533       5.75173905       8.37409464       0.00265361      -0.00172284       0.00219457
O        6.87152535       2.74773440       5.69192260      -0.00535055       0.00063379      -0.00480848
O        1.75684467       0.26258517       5.97509439      -0.00547380       0.00553824       0.00807228
O        6.88658859       0.26629591       5.70088874      -0.00039027       0.00519507      -0.00116970
O        3.46806376       3.27167690       8.37359232      -0.00146810      -0.00170252       0.00200651
O        1.76112117       2.75212991       5.99513654      -0.00149899      -0.00966371       0.01875432
Li       0.02395808       9.09658895       0.03136693       0.00833710       0.00190963       0.00530111
Li       0.02717114       5.89437298       0.03755629       0.00633394      -0.00839463       0.00668501
Li       5.16567999       6.00576308       2.34220647       0.00175596      -0.00241281       0.00111738
Li       5.16311160       9.01468131       2.34290091       0.00022071      -0.00001572       0.00165442
Fe       7.44441319      10.51350129       0.10726929      -0.00816066      -0.00497367       0.00374672
Fe       2.24115336      10.53684816       2.21004211       0.00260494       0.00566647       0.00173988
Fe       8.06811012       7.51069828       2.46069841      -0.00000380       0.00057987       0.00506363
Fe       2.90024445       7.51150787       4.57758851       0.00316735      -0.00048602      -0.00231595
P        9.31947805      10.50037266       2.72658528      -0.00058797       0.00276164      -0.00126481
P        4.18528640      10.50926064       4.31286776      -0.00088963       0.00089945       0.00045438
P        6.14142968       7.50848721       0.38173965      -0.00073756      -0.00116940       0.00182303
P        0.97478528       7.51782992       1.97053984      -0.00186070       0.00332865      -0.00083989
O        9.27546196      10.46028296       1.19874013       0.00589375       0.00921597      -0.00141263
O        4.18915055      10.51627151       1.16022798       0.00282213      -0.00036413      -0.00123960
O        6.14949719       7.51503854       3.54045688       0.00235705       0.00119616       0.00241340
O        0.98787663       7.51667864       3.50784106      -0.00294416       0.00265150       0.00029744
O        5.62827176      10.50232091       3.71982829      -0.00138091       0.00216181       0.00077653
O        0.43576951      10.51823378       3.30891113      -0.00159459       0.00576182       0.00099325
O        9.86804005       7.52066868       1.37732617      -0.00334621       0.00237803       0.00254450
O        4.69732144       7.51440418       0.97662864      -0.00067100       0.00146831       0.00060607
O        8.60668844       9.25657952       3.40099148      -0.00098240       0.00736485      -0.00145573
O        8.57137964      11.73603629       3.36439736       0.00230572       0.00583212      -0.00451159
O        3.45863152      11.75006198       3.66657896      -0.00138291      -0.00042511       0.00206905
O        6.87842732       8.74636685       1.02327480       0.00056245      -0.00296635       0.00356663
O        1.71956019       6.27848563       1.33576554      -0.00333596       0.00124501       0.00209255
O        6.87155277       6.26734073       1.01804090      -0.00328932      -0.00257031       0.00178312
O        3.43997291       9.27440991       3.67478490       0.00106617      -0.00055100       0.00101826
O        1.71743401       8.75833551       1.33577305      -0.00123941       0.00249590       0.00078742
Li      -0.01109302       9.01354887       4.69379574      -0.00046970       0.00216192      -0.00228466
Li      -0.01862202       6.01195742       4.70264194      -0.00359172       0.00251287       0.00163022
Li       5.16822453       6.01441114       7.04141369       0.00286890      -0.00066473       0.00020769
Li       5.16702220       9.01205393       7.04403385      -0.00025059       0.00129850       0.00142626
Fe       7.43140355      10.51113701       4.81911036      -0.00641702       0.00421362       0.00025929
Fe       2.26810891      10.52671506       6.93188806       0.00596351       0.00345264      -0.00343417
Fe       8.08890514       7.51558987       7.18116088      -0.00230791      -0.00000867       0.00513795
Fe       2.90007220       7.51395757       9.26995301       0.00128283       0.00146606       0.00149448
P        9.37636103      10.54512769       7.41714532      -0.00026077       0.00135335      -0.00376072
P        4.19721628      10.52162568       9.00777438       0.00000171       0.00247711       0.00073143
P        6.14548199       7.51492368       5.07706128       0.00172894       0.00260611       0.00291756
P        0.99788311       7.51989698       6.66651361       0.00212983       0.00603935       0.00089066
O        9.33549497      10.54161450       5.87678287       0.00279716       0.00598407       0.00606589
O        4.17486559      10.51490912       5.85076231       0.00219418      -0.00071395      -0.00050733
O        6.15594128       7.51626423       8.22845705      -0.00110128       0.00101830       0.00111782
O        1.01813140       7.52263896       8.20152258       0.00405653       0.00612348       0.00006703
O        5.64100659      10.51506122       8.40944742      -0.00101711       0.00232422      -0.00001491
O        0.48974119      10.49063275       7.96902255      -0.00408024       0.00033678       0.00552725
O        9.88285040       7.52131602       6.07943458       0.00081686       0.00631845       0.00534977
O        4.70411696       7.51701407       5.67500957       0.00200263       0.00271525       0.00258025
O        8.59971120       9.32306988       8.05180699      -0.00758585       0.00936331      -0.00430227
O        8.66136459      11.80937831       8.04760845      -0.01133856      -0.01170303      -0.02553403
O        3.46707761      11.76264481       8.37065790       0.00017755       0.00271678      -0.00103714
O        6.88627864       8.75186281       5.71869479       0.00176138       0.00212427       0.00252940
O        1.73749441       6.28596438       6.01696371       0.00012417       0.00386861       0.00154145
O        6.88047023       6.27683548       5.72007761       0.00019119       0.00051931       0.00276264
O        3.45894346       9.28001261       8.37124792       0.00208862       0.00281144       0.00019147
O        1.73250956       8.75748229       6.01583459      -0.00060788       0.00420834       0.00072976
111
Lattice="10.332 0.0 6.326525364395227e-16 1.932963424911317e-15 12.02 7.3601272628755925e-16 0.0 0.0 9.384" Properties=species:S:1:pos:R:3:forces:R:3 energy=-778.8311591462036 pbc="T T T"
Li      -0.19836956       0.43281235      -0.14538410       0.04287635      -0.12610972       0.03363544
Li       5.16552970      -0.00641857       2.34070232       0.00207516       0.00210555      -0.00048378
Li       5.16185388       3.01511768       2.34147114       0.00091458      -0.00114150       0.00034705
Fe       7.47564843       4.49305657       0.08591765       0.00136635       0.00073385      -0.00174759
Fe       2.24112205       4.49648095       2.21325364      -0.00100229      -0.00136334       0.00060259
Fe       8.07896021       1.51766089       2.44854751       0.00152358       0.00337362      -0.00938448
Fe       2.90935321       1.50030117       4.55796774      -0.00714058       0.00043228       0.00298867
P        9.31592718       4.54175431       2.72177246      -0.00033115       0.00391811      -0.00166919
P        4.18365134       4.51316753       4.32236254      -0.00197275      -0.00131142       0.00131865
P        6.13678020       1.50213383       0.37222636       0.00104142       0.00042159      -0.00193765
P        0.98631274       1.51759013       1.99609605      -0.00457986      -0.00148022      -0.00469396
O        9.25524062       4.61065157       1.20158845       0.00011561       0.00428415       0.00072822
O        4.19543025       4.51322653       1.16348266       0.00044540       0.00079668       0.00133760
O        6.16073928       1.49854696       3.52341982      -0.00008582       0.00079263      -0.00115094
O        1.00153209       1.50254410       3.54196520      -0.00246988       0.00001904       0.00000582
O        5.62550651       4.52353729       3.72655298      -0.00259930       0.00038527       0.00090078
O        0.43364010       4.51657363       3.30113034      -0.00075684       0.00253216      -0.00110662
O        9.86782796       1.49520325       1.45930759      -0.00258494      -0.01695117      -0.01994658
O        4.69635958       1.50025405       0.97336810       0.00190580       0.00082421      -0.00224129
O        8.57259040       3.30022217       3.35631895       0.00051818       0.00167701      -0.00451886
O        8.60440227       5.78018064       3.41416438      -0.00183008      -0.00099443       0.00104085
O        3.43498843       5.74449535       3.67820256      -0.00259055      -0.00116780       0.00124640
O        6.87540651       2.73881802       1.01144679       0.00375885      -0.00140477      -0.00256509
O        1.73745900       0.27882112       1.35824645       0.00091695      -0.00674836      -0.00232565
O        6.87517576       0.25894093       1.00447740       0.00079968      -0.00093530      -0.00340091
O        3.46173324       3.26816181       3.68144443      -0.00209475      -0.00042497       0.00279756
O        1.80429601       2.72095299       1.41013272      -0.00202683       0.00299767      -0.00985451
Li       0.00458018       3.01605241       4.69165696       0.00279776      -0.00103998      -0.00304127
Li       0.01896116      -0.00101291       4.68709236       0.00564558       0.00614787      -0.00311803
Li       5.16676312       0.00849876       7.04216058       0.00138263       0.00370921       0.00039658
Li       5.16402318       3.00079731       7.04098127      -0.00146035      -0.00170698      -0.00048346
Fe       7.43373609       4.51871507       4.81807662      -0.00188205       0.00004204      -0.00024875
Fe       2.25261502       4.50364458       6.95384669       0.00184696       0.00175669       0.00249250
Fe       8.08280992       1.54008443       7.14772135       0.00784652       0.00322689       0.00260080
Fe       2.86461539       1.52023683       9.30593590      -0.00717855       0.00009969      -0.00256123
P        9.36272842       4.50738706       7.40154367      -0.00136510       0.01090550      -0.00269200
P        4.20279068       4.51094074       9.01144419       0.00022102      -0.00106395       0.00206222
P        6.14902559       1.50010296       5.06051412      -0.00092895       0.00112689      -0.00113120
P        1.02547257       1.49685404       6.64749593      -0.00675551      -0.00323426       0.00031730
O        9.33663394       4.51579978       5.85497638       0.00257985       0.00583045      -0.00085323
O        4.16854773       4.51420973       5.85987451       0.00045948       0.00176975       0.00066688
O        6.14216741       1.50375802       8.21952472       0.00275964       0.00121621      -0.00124329
O        1.08688401       1.45212516       8.17021535      -0.01392377      -0.01799621       0.00826134
O        5.64303695       4.51288810       8.41069401      -0.00048095      -0.00087103       0.00143407
O        0.47612476       4.55702331       7.94304220      -0.00158550       0.00399379       0.00004703
O        9.90465041       1.50603609       6.07576435       0.00140682       0.00317302      -0.00289161
O        4.70919780       1.49485824       5.66013250      -0.00059366      -0.00073475      -0.00047156
O        8.55115570       3.29987938       7.99035710      -0.00516380       0.00952632      -0.00700421
O        8.61381112       5.75384807       8.04079244       0.00111954       0.00475626      -0.00479571
O        3.46267113       5.75271396       8.37637196       0.00105479      -0.00071062       0.00168858
O        6.87772763       2.74534293       5.69643025      -0.00060583      -0.00057630      -0.00143106
O        1.74596188       0.25659901       5.97332473      -0.00509401       0.00050460       0.00277205
O        6.89358758       0.26677395       5.70389291       0.00126230       0.00280173      -0.00060815
O        3.46362465       3.27324430       8.37417241      -0.00093120      -0.00026556       0.00216327
O        1.75557647       2.74202299       6.00955395       0.00045776      -0.00554537       0.01511229
Li       0.01640422       9.06887313       0.02213724       0.00492133      -0.00262375       0.00056073
Li       0.03073262       5.88481926       0.04074329       0.00588441      -0.00740616       0.00512158
Li       5.16421878       6.00375906       2.34311331       0.00113501      -0.00161378       0.00055656
Li       5.16316050       9.01460776       2.34310848      -0.00041116      -0.00047815       0.00098128
Fe       7.43481032      10.51384748       0.11087153      -0.00609256      -0.00075487       0.00182007
Fe       2.24367264      10.53706708       2.21160326       0.00244159       0.00351378       0.00151509
Fe       8.06826544       7.50825773       2.46054312      -0.00087574       0.00115048       0.00200695
Fe       2.90088400       7.51071632       4.57732472       0.00191488      -0.00036237      -0.00070298
P        9.32566140      10.50695354       2.72319089       0.00038841       0.00453188      -0.00148165
P        4.18474973      10.51121723       4.31188611      -0.00043892       0.00068945      -0.00015330
P        6.14144494       7.50759058       0.38049521      -0.00084632      -0.00051529       0.00098563
P        0.97595254       7.51733921       1.97076078      -0.00164015       0.00223886      -0.00022040
O        9.29372425      10.48236434       1.19093454       0.00738300       0.01066356      -0.00316431
O        4.18562736      10.51780722       1.15960508       0.00182122       0.00003210      -0.00108703
O        6.14887429       7.51489222       3.53861267       0.00059584       0.00090690       0.00140019
O        0.98812006       7.51632700       3.50810701      -0.00249046       0.00245766       0.00022108
O        5.62674630      10.50651671       3.71590090      -0.00098891       0.00136637      -0.00037519
O        0.44006359      10.51793770       3.30988857      -0.00079855       0.00484497      -0.00033069
O        9.86905921       7.52273538       1.37705281      -0.00244777       0.00299761       0.00152149
O        4.69846102       7.51606268       0.97805350      -0.00045416       0.00162208       0.00079214
O        8.60615569       9.26255754       3.38475802      -0.00160423       0.00715303      -0.00489189
O        8.57833837      11.74114267       3.36187302       0.00165305       0.00440381      -0.00273983
O        3.45379908      11.75074004       3.66644738      -0.00120449      -0.00008201       0.00109820
O        6.88207338       8.74545065       1.02027473       0.00082612      -0.00179149       0.00123952
O        1.71832448       6.27660491       1.33603153      -0.00308982       0.00080599       0.00187880
O        6.87115755       6.26573288       1.01573746      -0.00344935      -0.00205700       0.00065002
O        3.44117628       9.27439022       3.67574182       0.00076315      -0.00034006       0.00055173
O        1.72021046       8.75672206       1.33611572      -0.00030854       0.00109359       0.00022596
Li      -0.00659227       9.01395699       4.69161913       0.00053220       0.00245863      -0.00201816
Li      -0.02018344       6.01158690       4.70208012      -0.00332794       0.00326147       0.00080930
Li       5.16640681       6.01374295       7.04126430       0.00163168       0.00014524       0.00045853
Li       5.16648753       9.01380222       7.04326761      -0.00102556       0.00105380       0.00106883
Fe       7.42932222      10.51645271       4.81419579      -0.00327229       0.00397657      -0.00047994
Fe       2.26633706      10.52949692       6.92794440       0.00215642       0.00398743      -0.00255827
Fe       8.08552577       7.51141220       7.17400981      -0.00192458       0.00098106       0.00223048
Fe       2.90040558       7.51435583       9.27034489       0.00088584       0.00150266       0.00096130
P        9.36577918      10.53535408       7.41408921      -0.00261488       0.00300927      -0.00216681
P        4.19302228      10.52324766       9.00686619      -0.00029965       0.00148476      -0.00005227
P        6.14519697       7.51577086       5.07527357       0.00090425       0.00220612       0.00154936
P        0.99711038       7.52226830       6.66613154       0.00146104       0.00613475       0.00072631
O        9.34032694      10.53131263       5.87562661       0.00172783       0.00338496       0.00253856
O        4.17815921      10.51657426       5.84930949       0.00225463       0.00035864      -0.00086982
O        6.15191523       7.51609070       8.22740381      -0.00189520       0.00089749       0.00090411
O        1.01423983       7.52865574       8.20148880       0.00209184       0.00625287       0.00030256
O        5.63614404      10.51467133       8.40771777      -0.00122595       0.00119264      -0.00117396
O        0.47582294      10.51360958       7.98959651      -0.00540869       0.00562264       0.00845103
O        9.88436553       7.52055271       6.07438080       0.00119639       0.00519351       0.00201430
O        4.70426835       7.51864345       5.67423947       0.00116889       0.00258050       0.00152243
O        8.60528844       9.30653645       8.05040288      -0.00559748       0.00449416      -0.00389358
O        8.64066488      11.79117854       8.04713638      -0.00281497      -0.00227019      -0.01044746
O        3.46340922      11.76486415       8.37052085       0.00033201       0.00160143      -0.00109280
O        6.88747727       8.75320680       5.71429157       0.00139663       0.00181614       0.00067787
O        1.74165333       6.28963790       6.02096271       0.00154599       0.00494229       0.00217233
O        6.87968462       6.27717154       5.71800547      -0.00040839       0.00104909       0.00186994
O        3.45288153       9.28263297       8.37055468      -0.00030004       0.00272307      -0.00024108
O        1.72843416       8.76384185       6.01859139      -0.00084058       0.00540910       0.00139448
111
Lattice="10.332 0.0 6.326525364395227e-16 1.932963424911317e-15 12.02 7.3601272628755925e-16 0.0 0.0 9.384" Properties=species:S:1:pos:R:3:forces:R:3 energy=-778.8525273138283 pbc="T T T"
Li      -0.01876397       0.13827317      -0.03948084      -0.02180675      -0.00931851      -0.01068180
Li       5.16821446       0.00082793       2.34645642      -0.00229285      -0.00793892      -0.00415821
Li       5.16284020       3.01001089       2.34616188       0.00023886       0.00226137      -0.00104973
Fe       7.48044796       4.48567591       0.09127011      -0.00660890       0.01415892      -0.01146551
Fe       2.24115836       4.49035872       2.20206752      -0.01652941      -0.02175009       0.01014411
Fe       8.07822151       1.51313959       2.42728554       0.02973954       0.00379995       0.00677283
Fe       2.90119208       1.50123159       4.56264867      -0.00683714      -0.01355581       0.00714896
P        9.32146415       4.54092885       2.72821341      -0.00416575      -0.00874353      -0.00825398
P        4.17858990       4.50980798       4.32274992       0.00131879      -0.00044030      -0.00172148
P        6.13071868       1.50081130       0.37252404      -0.00156809       0.00200751       0.00223990
P        0.97342621       1.49894637       1.98884257      -0.00234942       0.02521154      -0.00307411
O        9.25273536       4.62438341       1.20886098       0.00383916      -0.03042652      -0.02699872
O        4.18849686       4.50659483       1.16370562       0.00761224       0.00630463       0.00608208
O        6.16956718       1.49815765       3.52347312      -0.00280912      -0.00058823      -0.00499669
O        0.99672143       1.49255253       3.53549088      -0.00363780      -0.00299493      -0.01459173
O        5.62184781       4.51467722       3.73025371       0.00050789       0.00238718      -0.00841124
O        0.44331021       4.52030168       3.29674963      -0.01111458      -0.00366942       0.01269425
O        9.86050053       1.45198570       1.44668350      -0.01506414       0.01410110      -0.01178537
O        4.68943246       1.49979766       0.96806172       0.00134086       0.00067395       0.00784016
O        8.59184246       3.28669177       3.35043460      -0.01497421       0.00753599       0.00955686
O        8.60348492       5.76997445       3.43020833      -0.00074207       0.00832920      -0.03209512
O        3.43684724       5.74256033       3.67599064      -0.00512559       0.00644507       0.00619567
O        6.87005072       2.73671638       1.01416120       0.00526542       0.00557882      -0.00558863
O        1.71507614       0.25173786       1.34312012       0.00668613       0.00818660       0.00421312
O        6.87003189       0.25888761       1.00732376      -0.00274759      -0.00850601      -0.00488507
O        3.45283360       3.26642100       3.68286506      -0.00423255      -0.00335023       0.00150124
O        1.79371028       2.70076779       1.40352115       0.00110209       0.01441311      -0.01409303
Li       0.00000000       3.00500000       4.69200000      -0.00000000      -0.00000000      -0.00000000
Li       0.01632125       0.00573561       4.67791790       0.00509489      -0.01071794       0.00519784
Li       5.17119820       0.00894818       7.04090547      -0.00139990      -0.00314351      -0.00347349
Li       5.16915980       2.99998911       7.03783812      -0.00023886      -0.00226137       0.00104973
Fe       7.43080792       4.50876841       4.82135133       0.00683714       0.01355581      -0.00714896
Fe       2.25377849       4.49686041       6.95671446      -0.02973954      -0.00379995      -0.00677283
Fe       8.09084164       1.51964128       7.18193248       0.01652941       0.02175009      -0.01014411
Fe       2.85155204       1.52432409       9.29272989       0.00660890      -0.01415892       0.01146551
P        9.35857379       4.51105363       7.39515743       0.00234942      -0.02521154       0.00307411
P        4.20128132       4.50918870       9.01147596       0.00156809      -0.00200751      -0.00223990
P        6.15341010       1.50019202       5.06125008      -0.00131879       0.00044030       0.00172148
P        1.01053585       1.46907115       6.65578659       0.00416575       0.00874353       0.00825398
O        9.33527857       4.51744747       5.84850912       0.00363780       0.00299493       0.01459173
O        4.16243282       4.51184235       5.86052688       0.00280912       0.00058823       0.00499669
O        6.14350314       1.50340517       8.22029438      -0.00761224      -0.00630463      -0.00608208
O        1.07926464       1.38561659       8.17513902      -0.00383916       0.03042652       0.02699872
O        5.64256754       4.51020234       8.41593828      -0.00134086      -0.00067395      -0.00784016
O        0.47149947       4.55801430       7.93731650       0.01506414      -0.01410110       0.01178537
O        9.88868979       1.48969832       6.08725037       0.01111458       0.00366942      -0.01269425
O        4.71015219       1.49532278       5.65374629      -0.00050789      -0.00238718       0.00841124
O        8.53828972       3.30923221       7.98047885      -0.00110209      -0.01441311       0.01409303
O        8.61692386       5.75826214       8.04087988      -0.00668613      -0.00818660      -0.00421312
O        3.46196811       5.75111239       8.37667624       0.00274759       0.00850601       0.00488507
O        6.87916640       2.74357900       5.70113494       0.00423255       0.00335023      -0.00150124
O        1.72851508       0.24002555       5.95379167       0.00074207      -0.00832920       0.03209512
O        6.89515276       0.26743967       5.70800936       0.00512559      -0.00644507      -0.00619567
O        3.46194928       3.27328362       8.36983880      -0.00526542      -0.00557882       0.00558863
O        1.74015754       2.72330823       6.03356540       0.01497421      -0.00753599      -0.00955686
Li       0.00000000       9.01500000       0.00000000       0.00000000      -0.00000000      -0.00000000
Li       0.01876397       5.87172683       0.03948084       0.02180675       0.00931851       0.01068180
Li       5.16080180       6.00105182       2.34309453       0.00139990       0.00314351       0.00347349
Li       5.16495298       9.01469688       2.34203919       0.00086433      -0.00118999       0.00063861
Fe       7.43385034      10.51685037       0.11631359      -0.01006711      -0.00153025      -0.00324466
Fe       2.25451454      10.53337640       2.21517931      -0.01011334      -0.01791523       0.01472678
Fe       8.06931493       7.50200936       2.46038481       0.00957601      -0.00379672       0.00704924
Fe       2.89970692       7.50709164       4.57574196       0.00624537       0.00813885       0.00485324
P        9.34047615      10.50971788       2.72175902      -0.00578594      -0.00079583      -0.00329573
P        4.18426664      10.51378481       4.31142009       0.00617288       0.00161958      -0.00037508
P        6.14623527       7.50594180       0.37915689      -0.00739450       0.00196191       0.00101059
P        0.97949029       7.51672970       1.96988337      -0.00063869      -0.00636266      -0.00303172
O        9.32808980      10.50379362       1.18634978      -0.00895794      -0.00634039      -0.01092358
O        4.18170934      10.51914267       1.15781564       0.00454149      -0.00456897       0.00735199
O        6.14978626       7.51149653       3.53583323       0.00105089       0.00185898      -0.00687076
O        0.98771169       7.51714504       3.50673063       0.00481619      -0.00351886       0.00787274
O        5.62437150      10.51293999       3.71071926       0.00790512      -0.00751044       0.00215112
O        0.45043546      10.51737451       3.31840152      -0.00559041      -0.00638399      -0.00443899
O        9.87277495       7.51925791       1.37416799      -0.00289007       0.00046680       0.00485960
O        4.70458409       7.51539753       0.97837795      -0.00950625       0.00426176       0.00234875
O        8.61201720       9.26312853       3.36298519      -0.00412924      -0.00085304       0.00730255
O        8.58837131      11.73890833       3.36433400      -0.00587530       0.00458823      -0.00713060
O        3.44846683      11.75185571       3.66791946       0.00759762       0.00156377      -0.00325854
O        6.89041964       8.74578997       1.01308203      -0.00678897       0.00337747       0.00271865
O        1.72536984       6.27716554       1.33674357      -0.00915985      -0.01266109      -0.00538904
O        6.87781617       6.26510642       1.01460475      -0.00917804      -0.00032048       0.00505920
O        3.44123549       9.27452544       3.67874728       0.00670615      -0.00375053      -0.00380381
O        1.72596495       8.75426759       1.33579460      -0.00594838       0.00076382      -0.00569465
Li       0.00000000       9.01500000       4.69200000      -0.00000000       0.00000000       0.00000000
Li      -0.01632125       6.00426439       4.70608210      -0.00509489       0.01071794      -0.00519784
Li       5.16378554       6.00917207       7.03754358       0.00229285       0.00793892       0.00415821
Li       5.16704702       9.01530312       7.04196081      -0.00086433       0.00118999      -0.00063861
Fe       7.43229308      10.52290836       4.80825804      -0.00624537      -0.00813885      -0.00485324
Fe       2.26268507      10.52799064       6.92361519      -0.00957601       0.00379672      -0.00704924
Fe       8.07748546       7.49662360       7.16882069       0.01011334       0.01791523      -0.01472678
Fe       2.89814966       7.51314963       9.26768641       0.01006711       0.00153025       0.00324466
P        9.35250971      10.51327030       7.41411663       0.00063869       0.00636266       0.00303172
P        4.18576473      10.52405820       9.00484311       0.00739450      -0.00196191      -0.00101059
P        6.14773336       7.51621519       5.07257991      -0.00617288      -0.00161958       0.00037508
P        0.99152385       7.52028212       6.66224098       0.00578594       0.00079583       0.00329573
O        9.34428831      10.51285496       5.87726937      -0.00481619       0.00351886      -0.00787274
O        4.18221374      10.51850347       5.84816677      -0.00105089      -0.00185898       0.00687076
O        6.15029066       7.51085733       8.22618436      -0.00454149       0.00456897      -0.00735199
O        1.00391020       7.52620638       8.19765022       0.00895794       0.00634039       0.01092358
O        5.62741591      10.51460247       8.40562205       0.00950625      -0.00426176      -0.00234875
O        0.45922505      10.51074209       8.00983201       0.00289007      -0.00046680      -0.00485960
O        9.88156454       7.51262549       6.06559848       0.00559041       0.00638399       0.00443899
O        4.70762850       7.51706001       5.67328074      -0.00790512       0.00751044      -0.00215112
O        8.60603505       9.27573241       8.04820540       0.00594838      -0.00076382       0.00569465
O        8.60663016      11.75283446       8.04725643       0.00915985       0.01266109       0.00538904
O        3.45418383      11.76489358       8.36939525       0.00917804       0.00032048      -0.00505920
O        6.89076451       8.75547456       5.70525272      -0.00670615       0.00375053       0.00380381
O        1.74362869       6.29109167       6.01966600       0.00587530      -0.00458823       0.00713060
O        6.88353317       6.27814429       5.71608054      -0.00759762      -0.00156377       0.00325854
O        3.44158036       9.28421003       8.37091797       0.00678897      -0.00337747      -0.00271865
O        1.71998280       8.76687147       6.02101481       0.00412924       0.00085304      -0.00730255
