Si MACE relaxation start 1

64 atoms
1 atom types

0.0 10.86000000 xlo xhi
0.0 10.86000000 ylo yhi
0.0 10.86000000 zlo zhi

Masses

1 28.085

Atoms # atomic

1 1 10.83929709 0.02053657 0.02420834
2 1 10.83699187 2.69436350 2.72425818
3 1 2.74249397 10.83118639 2.73744893
4 1 2.74458609 2.71433667 10.85476517
5 1 1.37669238 1.38046129 1.33757523
6 1 1.37858900 4.08774724 4.10157239
7 1 4.07752811 1.37374220 4.08248312
8 1 4.06717726 4.07276235 1.36128758
9 1 10.83659154 10.85281713 5.40911748
10 1 10.84080013 2.70498759 8.17139424
11 1 2.73656146 0.02577453 8.11722735
12 1 2.70070306 2.73463535 5.44318596
13 1 1.34665829 1.36454855 6.79694850
14 1 1.35373119 4.08886337 9.52103632
15 1 4.05631706 1.38050789 9.50493458
16 1 4.08666950 4.09317100 6.81416209
17 1 0.01209289 5.43746861 10.83961377
18 1 0.02077235 8.12081620 2.71849966
19 1 2.69302257 5.40403342 2.72880681
20 1 2.70131317 8.15926725 0.00441689
21 1 1.35425986 6.79243581 1.35934429
22 1 1.35671328 9.50355606 4.08370988
23 1 4.07126685 6.79886392 4.05635105
24 1 4.07265547 9.51379446 1.35536255
25 1 0.00181955 5.41753312 5.41684068
26 1 10.83547385 8.14448778 8.12288336
27 1 2.74438291 5.41486258 8.16516481
28 1 2.68982301 8.15821125 5.40374435
29 1 1.36092950 6.80042478 6.80664934
30 1 1.36431023 9.49652261 9.51777826
31 1 4.04821862 6.76119004 9.49387983
32 1 4.08444488 9.48592417 6.77090439
33 1 5.40276184 0.01296403 10.84285256
34 1 5.44214931 2.74042182 2.72279523
35 1 8.12612368 10.83301970 2.72323222
36 1 8.13198958 2.74435683 10.84860194
37 1 6.81745035 1.33207934 1.33946313
38 1 6.80497494 4.07097544 4.04696596
39 1 9.47976053 1.38065498 4.05405539
40 1 9.48486350 4.05432431 1.36127394
41 1 5.45208126 10.84036251 5.40728404
42 1 5.44670971 2.70569921 8.14322165
43 1 8.15688337 10.83646166 8.13244962
44 1 8.12322970 2.71736028 5.44037620
45 1 6.78705022 1.36907011 6.81677947
46 1 6.76902410 4.04797480 9.50031812
47 1 9.52192551 1.36138136 9.50333331
48 1 9.51890765 4.05225307 6.80912230
49 1 5.43825930 5.42461020 10.85401463
50 1 5.44132681 8.16675751 2.70823839
51 1 8.17339593 5.45344891 2.73314155
52 1 8.15238687 8.16778524 10.84492751
53 1 6.79497314 6.78668927 1.34333056
54 1 6.77060974 9.51215518 4.06026480
55 1 9.51396302 6.78997670 4.07887090
56 1 9.51438976 9.49461997 1.38095158
57 1 5.41786882 5.41466894 5.42200750
58 1 5.40585336 8.17423344 8.15141909
59 1 8.17465943 5.43762712 8.15571715
60 1 8.14780611 8.14695167 5.41321363
61 1 6.81189689 6.77766454 6.79169806
62 1 6.75913051 9.47702530 9.52607261
63 1 9.47417130 6.77453264 9.52073312
64 1 9.49808191 9.52442208 6.80938795
