Si MACE relaxation start 3

64 atoms
1 atom types

0.0 10.86000000 xlo xhi
0.0 10.86000000 ylo yhi
0.0 10.86000000 zlo zhi

Masses

1 28.085

Atoms # atomic

1 1 10.83514465 10.84906223 10.85072181
2 1 0.00052545 2.74332580 2.71905318
3 1 2.70385164 0.00944436 2.70603412
4 1 2.71859329 2.72591567 0.02522679
5 1 1.35557654 1.32841606 1.32935899
6 1 1.34796145 4.09249686 4.08846662
7 1 4.07689595 1.35087482 4.04889612
8 1 4.06924297 4.07480692 1.33667980
9 1 0.00708426 0.02891558 5.42030987
10 1 0.00782850 2.69362859 8.12705887
11 1 2.69388047 0.01502100 8.12235474
12 1 2.71157742 2.69340122 5.44991642
13 1 1.38564342 1.38359925 6.80170099
14 1 1.38179139 4.05975181 9.47954017
15 1 4.07566542 1.34040714 9.49425723
16 1 4.09314453 4.05838484 6.76093855
17 1 0.02874447 5.41644454 10.84456974
18 1 0.00195357 8.11556529 2.73957563
19 1 2.70272532 5.43221692 2.72609894
20 1 2.73642363 8.16916233 10.85165159
21 1 1.37230068 6.77003342 1.37464297
22 1 1.33756770 9.47576274 4.06759440
23 1 4.09453366 6.81229652 4.05549110
24 1 4.08266938 9.48021793 1.35318828
25 1 0.01394809 5.43601022 5.40623755
26 1 0.01670410 8.12136186 8.11736537
27 1 2.72790555 5.42700173 8.11839538
28 1 2.72674557 8.14715722 5.40485292
29 1 1.35801785 6.81668676 6.79896450
30 1 1.33579689 9.49613981 9.50792552
31 1 4.09441154 6.81144131 9.52270145
32 1 4.07291674 9.50035003 6.78813676
33 1 5.41640368 10.85237751 10.83100540
34 1 5.44791686 2.73574537 2.72787656
35 1 8.14727474 10.84519577 2.71546737
36 1 8.12284294 2.71942223 0.02872593
37 1 6.78788245 1.35075205 1.36584360
38 1 6.76876361 4.04509544 4.05785023
39 1 9.52578526 1.33486766 4.06532779
40 1 9.53151636 4.07472990 1.33112590
41 1 5.40597214 10.84341000 5.45502358
42 1 5.44160547 2.70327271 8.12707578
43 1 8.13050981 0.00476163 8.14173334
44 1 8.15129942 2.72782021 5.40774712
45 1 6.81389264 1.34199013 6.77703150
46 1 6.76494720 4.09881345 9.51340079
47 1 9.49212699 1.33232695 9.48129582
48 1 9.49736498 4.05442832 6.76519592
49 1 5.44863075 5.45255583 10.85494855
50 1 5.44444125 8.13448737 2.71293007
51 1 8.11838502 5.44980907 2.74064705
52 1 8.11521173 8.16831494 0.00569951
53 1 6.76614236 6.81025846 1.33332113
54 1 6.76988122 9.50400146 4.07966329
55 1 9.49941681 6.77989189 4.04470065
56 1 9.52196893 9.52653257 1.37967961
57 1 5.40290764 5.42673651 5.45663589
58 1 5.45092438 8.15504402 8.14285582
59 1 8.15600104 5.45421220 8.12162301
60 1 8.16588046 8.16110523 5.43001384
61 1 6.76748660 6.80293616 6.78077996
62 1 6.79077196 9.52848265 9.47993770
63 1 9.50393918 6.78985492 9.49994991
64 1 9.51426419 9.53040863 6.76101126
