Si MACE relaxation start 2

64 atoms
1 atom types

0.0 10.86000000 xlo xhi
0.0 10.86000000 ylo yhi
0.0 10.86000000 zlo zhi

Masses

1 28.085

Atoms # atomic

1 1 10.84828634 10.85488493 10.84531605
2 1 0.01611227 2.71715749 2.73429829
3 1 2.72951074 0.02134021 2.74304479
4 1 2.68887393 2.74363228 10.83372399
5 1 1.35971560 1.33413212 1.33957933
6 1 1.34668794 4.08244752 4.04858874
7 1 4.04544108 1.37438569 4.08033044
8 1 4.08612465 4.07703462 1.32847054
9 1 0.02763537 10.84873753 5.41188850
10 1 0.00914842 2.72775568 8.16280680
11 1 2.73066186 0.02255679 8.15662351
12 1 2.69515636 2.69185590 5.43783018
13 1 1.35657968 1.34316776 6.80501838
14 1 1.33339166 4.05973709 9.50408818
15 1 4.07597159 1.35349047 9.49036434
16 1 4.06555369 4.08056912 6.79964655
17 1 0.02519894 5.42372626 10.84598824
18 1 0.00090283 8.14315469 2.74000444
19 1 2.74050726 5.40624633 2.70308357
20 1 2.71443234 8.14726514 10.84282297
21 1 1.35722625 6.77804724 1.35327897
22 1 1.33880735 9.52287206 4.08068742
23 1 4.08619990 6.78148278 4.05001930
24 1 4.07941239 9.47275266 1.37403492
25 1 0.02149315 5.44046358 5.43439658
26 1 10.84133326 8.17334398 8.14862111
27 1 2.70794774 5.41030139 8.16619635
28 1 2.69652751 8.12642766 5.41256216
29 1 1.38082537 6.76989024 6.79201817
30 1 1.32975315 9.50652473 9.51419869
31 1 4.08344395 6.80296790 9.49958550
32 1 4.04409925 9.51234965 6.81265677
33 1 5.43518243 0.00352175 10.83029098
34 1 5.41451784 2.72338175 2.71933212
35 1 8.16412027 10.84973299 2.69608003
36 1 8.12471062 2.74438187 10.83638254
37 1 6.80888642 1.33836318 1.33621939
38 1 6.81551988 4.07472086 4.08640432
39 1 9.51957595 1.32913580 4.06199401
40 1 9.49920898 4.04257794 1.37343305
41 1 5.40514157 0.00938833 5.41515299
42 1 5.40204353 2.69663492 8.15505997
43 1 8.14223820 0.01081719 8.16363479
44 1 8.13070222 2.70825244 5.43022293
45 1 6.78201344 1.35140771 6.80091013
46 1 6.76942211 4.07769784 9.47849333
47 1 9.48171387 1.34504412 9.51406045
48 1 9.47766623 4.08870440 6.77617393
49 1 5.43174475 5.45888293 0.01584900
50 1 5.42860099 8.15420459 2.71221198
51 1 8.13100800 5.41829892 2.74034852
52 1 8.12671420 8.13908718 0.01008192
53 1 6.81347474 6.80987972 1.38237432
54 1 6.80226573 9.51308086 4.04601616
55 1 9.50392695 6.78027705 4.06530301
56 1 9.51940580 9.48133761 1.38616922
57 1 5.45194005 5.43550073 5.45481494
58 1 5.43652229 8.13474191 8.13782378
59 1 8.11851232 5.45121344 8.14046646
60 1 8.14962111 8.13303411 5.43233434
61 1 6.78309446 6.78655513 6.78154775
62 1 6.77976857 9.52748046 9.51630363
63 1 9.52162229 6.78235148 9.49615987
64 1 9.52679605 9.48594629 6.79191514
