Si MACE relaxation start 4

64 atoms
1 atom types

0.0 10.86000000 xlo xhi
0.0 10.86000000 ylo yhi
0.0 10.86000000 zlo zhi

Masses

1 28.085

Atoms # atomic

1 1 10.83548593 10.83415719 0.00813865
2 1 10.85202399 2.69106562 2.69042623
3 1 2.72032542 10.85373128 2.74231008
4 1 2.69897842 2.70524763 10.84574472
5 1 1.33830033 1.34205543 1.37875903
6 1 1.38524780 4.05345498 4.05360178
7 1 4.07202582 1.37009494 4.07549289
8 1 4.05316645 4.05118560 1.36107517
9 1 0.02061303 0.02362257 5.40260341
10 1 10.85018182 2.74002600 8.11685892
11 1 2.71592392 10.84695739 8.16583358
12 1 2.73950765 2.68730116 5.45314695
13 1 1.33183804 1.34081676 6.80979019
14 1 1.34716075 4.06190196 9.53166457
15 1 4.10236413 1.36486168 9.52420056
16 1 4.04864731 4.06626708 6.81045567
17 1 0.00396501 5.44642114 10.84509764
18 1 0.02424111 8.14448355 2.72988807
19 1 2.73683870 5.40126161 2.71617259
20 1 2.73822870 8.13046309 0.00510251
21 1 1.36039978 6.75819675 1.37744023
22 1 1.35507443 9.51564521 4.05738062
23 1 4.06544340 6.77960910 4.05469185
24 1 4.07965677 9.49466993 1.37370242
25 1 0.00303848 5.40369622 5.40505615
26 1 10.83204045 8.11707801 8.15660618
27 1 2.69807486 5.42658068 8.11715273
28 1 2.70640970 8.13352746 5.45799710
29 1 1.34498172 6.80083664 6.80622382
30 1 1.38645196 9.51648372 9.49612374
31 1 4.08664390 6.79192447 9.52139026
32 1 4.08271436 9.47896538 6.79762541
33 1 5.42815994 0.02000517 10.85489676
34 1 5.41918797 2.73895904 2.68597530
35 1 8.13063564 10.83918083 2.72805156
36 1 8.17074172 2.73751151 0.01234596
37 1 6.79476037 1.38235946 1.38346634
38 1 6.79712235 4.09314038 4.06841060
39 1 9.49619456 1.35590629 4.09698967
40 1 9.51182931 4.09486675 1.37267899
41 1 5.40901549 0.01917617 5.43273137
42 1 5.43670101 2.71062333 8.16765247
43 1 8.14467915 0.00917044 8.15569573
44 1 8.15880333 2.70159910 5.41435494
45 1 6.76160216 1.35820392 6.81297515
46 1 6.75921251 4.04825598 9.48979262
47 1 9.51548737 1.38562572 9.51042648
48 1 9.49453022 4.09140867 6.78551149
49 1 5.42814232 5.40992775 0.01594638
50 1 5.44959961 8.12689085 2.73850585
51 1 8.12933972 5.44267357 2.73554348
52 1 8.13251212 8.14425202 0.02880216
53 1 6.77671966 6.80045476 1.36907015
54 1 6.79324217 9.48193915 4.05458855
55 1 9.48037491 6.77146409 4.07040752
56 1 9.52176676 9.51883299 1.34402009
57 1 5.42325658 5.44633725 5.41830002
58 1 5.40905475 8.16834310 8.12958275
59 1 8.16674860 5.44588748 8.12929823
60 1 8.12740750 8.14401869 5.40643112
61 1 6.77863512 6.80208132 6.80928459
62 1 6.81599838 9.52965418 9.49374645
63 1 9.50714816 6.80813727 9.48317153
64 1 9.52836772 9.48829533 6.76336969
